0 1 4
0 2 1
0 3 4
0 4 2
0 5 4
0 6 4
0 7 2
0 8 3
0 9 0
0 10 0
0 11 3
0 12 1
0 13 1
0 14 0
0 15 2
0 16 3
0 17 4
0 18 0
0 19 2
0 20 2
0 21 3
0 22 1
0 23 1
0 24 0
0 25 0
1 2 3
1 3 4
1 4 1
1 5 4
1 6 1
1 7 0
1 8 0
1 9 0
1 10 1
1 11 2
1 12 2
1 13 4
1 14 2
1 15 0
1 16 1
1 17 4
1 18 2
1 19 3
1 20 3
1 21 0
1 22 3
1 23 0
1 24 2
1 25 3
2 3 0
2 4 0
2 5 2
2 6 2
2 7 4
2 8 2
2 9 4
2 10 4
2 11 4
2 12 1
2 13 1
2 14 2
2 15 4
2 16 0
2 17 2
2 18 0
2 19 3
2 20 3
2 21 0
2 22 1
2 23 1
2 24 2
2 25 3
3 4 0
3 5 4
3 6 3
3 7 1
3 8 3
3 9 2
3 10 0
3 11 1
3 12 3
3 13 2
3 14 1
3 15 3
3 16 2
3 17 4
3 18 0
3 19 1
3 20 3
3 21 0
3 22 2
3 23 3
3 24 3
3 25 2
4 5 3
4 6 1
4 7 2
4 8 4
4 9 3
4 10 1
4 11 3
4 12 3
4 13 4
4 14 3
4 15 2
4 16 1
4 17 0
4 18 0
4 19 4
4 20 2
4 21 0
4 22 4
4 23 3
4 24 4
4 25 0
5 6 0
5 7 0
5 8 1
5 9 3
5 10 2
5 11 0
5 12 3
5 13 0
5 14 3
5 15 1
5 16 4
5 17 4
5 18 1
5 19 2
5 20 0
5 21 2
5 22 0
5 23 2
5 24 4
5 25 1
6 7 4
6 8 2
6 9 3
6 10 1
6 11 0
6 12 4
6 13 0
6 14 2
6 15 3
6 16 1
6 17 2
6 18 4
6 19 3
6 20 0
6 21 4
6 22 0
6 23 3
6 24 3
6 25 4
7 8 0
7 9 0
7 10 3
7 11 1
7 12 4
7 13 3
7 14 1
7 15 2
7 16 0
7 17 3
7 18 3
7 19 1
7 20 2
7 21 4
7 22 3
7 23 0
7 24 0
7 25 4
8 9 0
8 10 0
8 11 3
8 12 0
8 13 4
8 14 2
8 15 1
8 16 3
8 17 2
8 18 1
8 19 4
8 20 2
8 21 3
8 22 4
8 23 0
8 24 4
8 25 1
9 10 4
9 11 4
9 12 3
9 13 2
9 14 3
9 15 4
9 16 2
9 17 1
9 18 0
9 19 0
9 20 1
9 21 1
9 22 2
9 23 0
9 24 1
9 25 2
10 11 4
10 12 2
10 13 3
10 14 0
10 15 4
10 16 1
10 17 3
10 18 3
10 19 2
10 20 2
10 21 2
10 22 3
10 23 2
10 24 0
10 25 0
11 12 2
11 13 0
11 14 1
11 15 4
11 16 3
11 17 4
11 18 2
11 19 1
11 20 0
11 21 3
11 22 0
11 23 2
11 24 2
11 25 3
12 13 1
12 14 3
12 15 0
12 16 0
12 17 0
12 18 2
12 19 0
12 20 3
12 21 4
12 22 1
12 23 1
12 24 2
12 25 4
13 14 4
13 15 2
13 16 2
13 17 3
13 18 3
13 19 4
13 20 0
13 21 2
13 22 1
13 23 1
13 24 4
13 25 2
14 15 4
14 16 4
14 17 2
14 18 4
14 19 1
14 20 4
14 21 1
14 22 0
14 23 4
14 24 0
14 25 0
15 16 0
15 17 0
15 18 1
15 19 0
15 20 2
15 21 4
15 22 3
15 23 3
15 24 3
15 25 1
16 17 0
16 18 4
16 19 0
16 20 4
16 21 3
16 22 2
16 23 4
16 24 3
16 25 2
17 18 3
17 19 0
17 20 1
17 21 1
17 22 3
17 23 2
17 24 1
17 25 0
18 19 0
18 20 4
18 21 0
18 22 3
18 23 4
18 24 2
18 25 1
19 20 3
19 21 2
19 22 4
19 23 2
19 24 4
19 25 3
20 21 1
20 22 0
20 23 4
20 24 1
20 25 3
21 22 3
21 23 2
21 24 1
21 25 4
22 23 1
22 24 4
22 25 2
23 24 3
23 25 3
24 25 0
