c x(v,c) = variable 5*v+c+1 for v=0..24,c=0..4
c no symmetry-breaking clauses
p cnf 125 12895
1 2 3 4 5 0
-1 -2 0
-1 -3 0
-1 -4 0
-1 -5 0
-2 -3 0
-2 -4 0
-2 -5 0
-3 -4 0
-3 -5 0
-4 -5 0
6 7 8 9 10 0
-6 -7 0
-6 -8 0
-6 -9 0
-6 -10 0
-7 -8 0
-7 -9 0
-7 -10 0
-8 -9 0
-8 -10 0
-9 -10 0
11 12 13 14 15 0
-11 -12 0
-11 -13 0
-11 -14 0
-11 -15 0
-12 -13 0
-12 -14 0
-12 -15 0
-13 -14 0
-13 -15 0
-14 -15 0
16 17 18 19 20 0
-16 -17 0
-16 -18 0
-16 -19 0
-16 -20 0
-17 -18 0
-17 -19 0
-17 -20 0
-18 -19 0
-18 -20 0
-19 -20 0
21 22 23 24 25 0
-21 -22 0
-21 -23 0
-21 -24 0
-21 -25 0
-22 -23 0
-22 -24 0
-22 -25 0
-23 -24 0
-23 -25 0
-24 -25 0
26 27 28 29 30 0
-26 -27 0
-26 -28 0
-26 -29 0
-26 -30 0
-27 -28 0
-27 -29 0
-27 -30 0
-28 -29 0
-28 -30 0
-29 -30 0
31 32 33 34 35 0
-31 -32 0
-31 -33 0
-31 -34 0
-31 -35 0
-32 -33 0
-32 -34 0
-32 -35 0
-33 -34 0
-33 -35 0
-34 -35 0
36 37 38 39 40 0
-36 -37 0
-36 -38 0
-36 -39 0
-36 -40 0
-37 -38 0
-37 -39 0
-37 -40 0
-38 -39 0
-38 -40 0
-39 -40 0
41 42 43 44 45 0
-41 -42 0
-41 -43 0
-41 -44 0
-41 -45 0
-42 -43 0
-42 -44 0
-42 -45 0
-43 -44 0
-43 -45 0
-44 -45 0
46 47 48 49 50 0
-46 -47 0
-46 -48 0
-46 -49 0
-46 -50 0
-47 -48 0
-47 -49 0
-47 -50 0
-48 -49 0
-48 -50 0
-49 -50 0
51 52 53 54 55 0
-51 -52 0
-51 -53 0
-51 -54 0
-51 -55 0
-52 -53 0
-52 -54 0
-52 -55 0
-53 -54 0
-53 -55 0
-54 -55 0
56 57 58 59 60 0
-56 -57 0
-56 -58 0
-56 -59 0
-56 -60 0
-57 -58 0
-57 -59 0
-57 -60 0
-58 -59 0
-58 -60 0
-59 -60 0
61 62 63 64 65 0
-61 -62 0
-61 -63 0
-61 -64 0
-61 -65 0
-62 -63 0
-62 -64 0
-62 -65 0
-63 -64 0
-63 -65 0
-64 -65 0
66 67 68 69 70 0
-66 -67 0
-66 -68 0
-66 -69 0
-66 -70 0
-67 -68 0
-67 -69 0
-67 -70 0
-68 -69 0
-68 -70 0
-69 -70 0
71 72 73 74 75 0
-71 -72 0
-71 -73 0
-71 -74 0
-71 -75 0
-72 -73 0
-72 -74 0
-72 -75 0
-73 -74 0
-73 -75 0
-74 -75 0
76 77 78 79 80 0
-76 -77 0
-76 -78 0
-76 -79 0
-76 -80 0
-77 -78 0
-77 -79 0
-77 -80 0
-78 -79 0
-78 -80 0
-79 -80 0
81 82 83 84 85 0
-81 -82 0
-81 -83 0
-81 -84 0
-81 -85 0
-82 -83 0
-82 -84 0
-82 -85 0
-83 -84 0
-83 -85 0
-84 -85 0
86 87 88 89 90 0
-86 -87 0
-86 -88 0
-86 -89 0
-86 -90 0
-87 -88 0
-87 -89 0
-87 -90 0
-88 -89 0
-88 -90 0
-89 -90 0
91 92 93 94 95 0
-91 -92 0
-91 -93 0
-91 -94 0
-91 -95 0
-92 -93 0
-92 -94 0
-92 -95 0
-93 -94 0
-93 -95 0
-94 -95 0
96 97 98 99 100 0
-96 -97 0
-96 -98 0
-96 -99 0
-96 -100 0
-97 -98 0
-97 -99 0
-97 -100 0
-98 -99 0
-98 -100 0
-99 -100 0
101 102 103 104 105 0
-101 -102 0
-101 -103 0
-101 -104 0
-101 -105 0
-102 -103 0
-102 -104 0
-102 -105 0
-103 -104 0
-103 -105 0
-104 -105 0
106 107 108 109 110 0
-106 -107 0
-106 -108 0
-106 -109 0
-106 -110 0
-107 -108 0
-107 -109 0
-107 -110 0
-108 -109 0
-108 -110 0
-109 -110 0
111 112 113 114 115 0
-111 -112 0
-111 -113 0
-111 -114 0
-111 -115 0
-112 -113 0
-112 -114 0
-112 -115 0
-113 -114 0
-113 -115 0
-114 -115 0
116 117 118 119 120 0
-116 -117 0
-116 -118 0
-116 -119 0
-116 -120 0
-117 -118 0
-117 -119 0
-117 -120 0
-118 -119 0
-118 -120 0
-119 -120 0
121 122 123 124 125 0
-121 -122 0
-121 -123 0
-121 -124 0
-121 -125 0
-122 -123 0
-122 -124 0
-122 -125 0
-123 -124 0
-123 -125 0
-124 -125 0
1 6 11 16 21 0
2 7 12 17 22 0
3 8 13 18 23 0
4 9 14 19 24 0
2 7 12 17 27 0
3 8 13 18 33 0
4 9 14 19 39 0
1 6 11 16 46 0
4 9 14 19 54 0
2 7 12 17 57 0
3 8 13 18 68 0
1 6 11 16 71 0
3 8 13 18 78 0
2 7 12 17 87 0
4 9 14 19 94 0
1 6 11 16 96 0
4 9 14 19 109 0
3 8 13 18 113 0
2 7 12 17 117 0
1 6 11 16 121 0
3 8 13 23 28 0
4 9 14 24 34 0
1 6 11 21 41 0
2 7 12 22 47 0
2 7 12 22 52 0
3 8 13 23 63 0
1 6 11 21 66 0
4 9 14 24 74 0
2 7 12 22 82 0
4 9 14 24 89 0
1 6 11 21 91 0
3 8 13 23 98 0
4 9 14 24 104 0
3 8 13 23 108 0
2 7 12 22 112 0
1 6 11 21 116 0
3 8 13 28 33 0
2 7 12 27 47 0
2 7 12 27 52 0
3 8 13 28 68 0
3 8 13 28 78 0
2 7 12 27 82 0
2 7 12 27 112 0
3 8 13 28 113 0
4 9 14 34 39 0
4 9 14 34 54 0
3 8 13 33 63 0
4 9 14 34 94 0
3 8 13 33 98 0
3 8 13 33 108 0
4 9 14 34 109 0
4 9 14 39 74 0
4 9 14 39 89 0
4 9 14 39 104 0
1 6 11 41 46 0
1 6 11 41 71 0
1 6 11 41 96 0
1 6 11 41 121 0
2 7 12 47 57 0
1 6 11 46 66 0
2 7 12 47 87 0
1 6 11 46 91 0
1 6 11 46 116 0
2 7 12 47 117 0
2 7 12 52 57 0
4 9 14 54 74 0
2 7 12 52 87 0
4 9 14 54 89 0
4 9 14 54 104 0
2 7 12 52 117 0
2 7 12 57 82 0
2 7 12 57 112 0
3 8 13 63 68 0
3 8 13 63 78 0
3 8 13 63 113 0
1 6 11 66 71 0
1 6 11 66 96 0
3 8 13 68 98 0
3 8 13 68 108 0
1 6 11 66 121 0
1 6 11 71 91 0
4 9 14 74 94 0
4 9 14 74 109 0
1 6 11 71 116 0
3 8 13 78 98 0
3 8 13 78 108 0
2 7 12 82 87 0
2 7 12 82 117 0
4 9 14 89 94 0
4 9 14 89 109 0
2 7 12 87 112 0
1 6 11 91 96 0
4 9 14 94 104 0
1 6 11 91 121 0
3 8 13 98 113 0
1 6 11 96 116 0
4 9 14 104 109 0
3 8 13 108 113 0
2 7 12 112 117 0
1 6 11 116 121 0
4 9 19 24 29 0
1 6 16 21 36 0
2 7 17 22 42 0
3 8 18 23 48 0
3 8 18 23 58 0
1 6 16 21 61 0
4 9 19 24 69 0
2 7 17 22 72 0
2 7 17 22 77 0
4 9 19 24 84 0
1 6 16 21 86 0
3 8 18 23 93 0
3 8 18 23 103 0
2 7 17 22 107 0
1 6 16 21 111 0
4 9 19 24 124 0
4 9 19 29 39 0
2 7 17 27 42 0
4 9 19 29 54 0
2 7 17 27 72 0
2 7 17 27 77 0
4 9 19 29 94 0
2 7 17 27 107 0
4 9 19 29 109 0
3 8 18 33 48 0
3 8 18 33 58 0
3 8 18 33 93 0
3 8 18 33 103 0
1 6 16 36 46 0
4 9 19 39 69 0
1 6 16 36 71 0
4 9 19 39 84 0
1 6 16 36 96 0
1 6 16 36 121 0
4 9 19 39 124 0
2 7 17 42 57 0
2 7 17 42 87 0
2 7 17 42 117 0
1 6 16 46 61 0
3 8 18 48 68 0
3 8 18 48 78 0
1 6 16 46 86 0
1 6 16 46 111 0
3 8 18 48 113 0
4 9 19 54 69 0
4 9 19 54 84 0
4 9 19 54 124 0
3 8 18 58 68 0
2 7 17 57 72 0
2 7 17 57 77 0
3 8 18 58 78 0
2 7 17 57 107 0
3 8 18 58 113 0
1 6 16 61 71 0
1 6 16 61 96 0
1 6 16 61 121 0
3 8 18 68 93 0
4 9 19 69 94 0
3 8 18 68 103 0
4 9 19 69 109 0
1 6 16 71 86 0
2 7 17 72 87 0
1 6 16 71 111 0
2 7 17 72 117 0
2 7 17 77 87 0
3 8 18 78 93 0
3 8 18 78 103 0
2 7 17 77 117 0
4 9 19 84 94 0
4 9 19 84 109 0
1 6 16 86 96 0
2 7 17 87 107 0
1 6 16 86 121 0
3 8 18 93 113 0
4 9 19 94 124 0
1 6 16 96 111 0
3 8 18 103 113 0
2 7 17 107 117 0
4 9 19 109 124 0
1 6 16 111 121 0
4 9 24 29 34 0
3 8 23 28 48 0
3 8 23 28 58 0
4 9 24 29 74 0
4 9 24 29 89 0
3 8 23 28 93 0
3 8 23 28 103 0
4 9 24 29 104 0
4 9 24 34 69 0
4 9 24 34 84 0
4 9 24 34 124 0
1 6 21 36 41 0
1 6 21 36 66 0
1 6 21 36 91 0
1 6 21 36 116 0
2 7 22 42 47 0
2 7 22 42 52 0
1 6 21 41 61 0
2 7 22 42 82 0
1 6 21 41 86 0
1 6 21 41 111 0
2 7 22 42 112 0
3 8 23 48 63 0
2 7 22 47 72 0
2 7 22 47 77 0
3 8 23 48 98 0
2 7 22 47 107 0
3 8 23 48 108 0
2 7 22 52 72 0
2 7 22 52 77 0
2 7 22 52 107 0
3 8 23 58 63 0
3 8 23 58 98 0
3 8 23 58 108 0
1 6 21 61 66 0
1 6 21 61 91 0
3 8 23 63 93 0
3 8 23 63 103 0
1 6 21 61 116 0
4 9 24 69 74 0
1 6 21 66 86 0
4 9 24 69 89 0
4 9 24 69 104 0
1 6 21 66 111 0
2 7 22 72 82 0
4 9 24 74 84 0
2 7 22 72 112 0
4 9 24 74 124 0
2 7 22 77 82 0
2 7 22 77 112 0
4 9 24 84 89 0
4 9 24 84 104 0
2 7 22 82 107 0
1 6 21 86 91 0
1 6 21 86 116 0
4 9 24 89 124 0
3 8 23 93 98 0
3 8 23 93 108 0
1 6 21 91 111 0
3 8 23 98 103 0
3 8 23 103 108 0
4 9 24 104 124 0
2 7 22 107 112 0
1 6 21 111 116 0
4 9 29 34 39 0
3 8 28 33 48 0
4 9 29 34 54 0
3 8 28 33 58 0
3 8 28 33 93 0
4 9 29 34 94 0
3 8 28 33 103 0
4 9 29 34 109 0
4 9 29 39 74 0
4 9 29 39 89 0
4 9 29 39 104 0
2 7 27 42 47 0
2 7 27 42 52 0
2 7 27 42 82 0
2 7 27 42 112 0
3 8 28 48 68 0
2 7 27 47 72 0
2 7 27 47 77 0
3 8 28 48 78 0
2 7 27 47 107 0
3 8 28 48 113 0
2 7 27 52 72 0
4 9 29 54 74 0
2 7 27 52 77 0
4 9 29 54 89 0
4 9 29 54 104 0
2 7 27 52 107 0
3 8 28 58 68 0
3 8 28 58 78 0
3 8 28 58 113 0
3 8 28 68 93 0
3 8 28 68 103 0
2 7 27 72 82 0
4 9 29 74 94 0
4 9 29 74 109 0
2 7 27 72 112 0
2 7 27 77 82 0
3 8 28 78 93 0
3 8 28 78 103 0
2 7 27 77 112 0
2 7 27 82 107 0
4 9 29 89 94 0
4 9 29 89 109 0
4 9 29 94 104 0
3 8 28 93 113 0
4 9 29 104 109 0
3 8 28 103 113 0
2 7 27 107 112 0
4 9 34 39 69 0
4 9 34 39 84 0
4 9 34 39 124 0
3 8 33 48 63 0
3 8 33 48 98 0
3 8 33 48 108 0
4 9 34 54 69 0
4 9 34 54 84 0
4 9 34 54 124 0
3 8 33 58 63 0
3 8 33 58 98 0
3 8 33 58 108 0
3 8 33 63 93 0
3 8 33 63 103 0
4 9 34 69 94 0
4 9 34 69 109 0
4 9 34 84 94 0
4 9 34 84 109 0
3 8 33 93 98 0
3 8 33 93 108 0
4 9 34 94 124 0
3 8 33 98 103 0
3 8 33 103 108 0
4 9 34 109 124 0
1 6 36 41 46 0
1 6 36 41 71 0
1 6 36 41 96 0
1 6 36 41 121 0
1 6 36 46 66 0
1 6 36 46 91 0
1 6 36 46 116 0
1 6 36 66 71 0
4 9 39 69 74 0
4 9 39 69 89 0
1 6 36 66 96 0
4 9 39 69 104 0
1 6 36 66 121 0
4 9 39 74 84 0
1 6 36 71 91 0
1 6 36 71 116 0
4 9 39 74 124 0
4 9 39 84 89 0
4 9 39 84 104 0
4 9 39 89 124 0
1 6 36 91 96 0
1 6 36 91 121 0
1 6 36 96 116 0
4 9 39 104 124 0
1 6 36 116 121 0
2 7 42 47 57 0
1 6 41 46 61 0
1 6 41 46 86 0
2 7 42 47 87 0
1 6 41 46 111 0
2 7 42 47 117 0
2 7 42 52 57 0
2 7 42 52 87 0
2 7 42 52 117 0
2 7 42 57 82 0
2 7 42 57 112 0
1 6 41 61 71 0
1 6 41 61 96 0
1 6 41 61 121 0
1 6 41 71 86 0
1 6 41 71 111 0
2 7 42 82 87 0
2 7 42 82 117 0
1 6 41 86 96 0
2 7 42 87 112 0
1 6 41 86 121 0
1 6 41 96 111 0
2 7 42 112 117 0
1 6 41 111 121 0
2 7 47 57 72 0
2 7 47 57 77 0
2 7 47 57 107 0
1 6 46 61 66 0
3 8 48 63 68 0
3 8 48 63 78 0
1 6 46 61 91 0
3 8 48 63 113 0
1 6 46 61 116 0
1 6 46 66 86 0
3 8 48 68 98 0
3 8 48 68 108 0
1 6 46 66 111 0
2 7 47 72 87 0
2 7 47 72 117 0
2 7 47 77 87 0
3 8 48 78 98 0
3 8 48 78 108 0
2 7 47 77 117 0
1 6 46 86 91 0
2 7 47 87 107 0
1 6 46 86 116 0
1 6 46 91 111 0
3 8 48 98 113 0
3 8 48 108 113 0
2 7 47 107 117 0
1 6 46 111 116 0
2 7 52 57 72 0
2 7 52 57 77 0
2 7 52 57 107 0
4 9 54 69 74 0
4 9 54 69 89 0
4 9 54 69 104 0
4 9 54 74 84 0
2 7 52 72 87 0
2 7 52 72 117 0
4 9 54 74 124 0
2 7 52 77 87 0
2 7 52 77 117 0
4 9 54 84 89 0
4 9 54 84 104 0
2 7 52 87 107 0
4 9 54 89 124 0
4 9 54 104 124 0
2 7 52 107 117 0
3 8 58 63 68 0
3 8 58 63 78 0
3 8 58 63 113 0
3 8 58 68 98 0
3 8 58 68 108 0
2 7 57 72 82 0
2 7 57 72 112 0
2 7 57 77 82 0
3 8 58 78 98 0
3 8 58 78 108 0
2 7 57 77 112 0
2 7 57 82 107 0
3 8 58 98 113 0
2 7 57 107 112 0
3 8 58 108 113 0
1 6 61 66 71 0
3 8 63 68 93 0
1 6 61 66 96 0
3 8 63 68 103 0
1 6 61 66 121 0
1 6 61 71 91 0
1 6 61 71 116 0
3 8 63 78 93 0
3 8 63 78 103 0
1 6 61 91 96 0
3 8 63 93 113 0
1 6 61 91 121 0
1 6 61 96 116 0
3 8 63 103 113 0
1 6 61 116 121 0
1 6 66 71 86 0
4 9 69 74 94 0
4 9 69 74 109 0
1 6 66 71 111 0
4 9 69 89 94 0
1 6 66 86 96 0
4 9 69 89 109 0
1 6 66 86 121 0
3 8 68 93 98 0
4 9 69 94 104 0
3 8 68 93 108 0
3 8 68 98 103 0
1 6 66 96 111 0
3 8 68 103 108 0
4 9 69 104 109 0
1 6 66 111 121 0
2 7 72 82 87 0
4 9 74 84 94 0
4 9 74 84 109 0
2 7 72 82 117 0
1 6 71 86 91 0
2 7 72 87 112 0
1 6 71 86 116 0
1 6 71 91 111 0
4 9 74 94 124 0
4 9 74 109 124 0
1 6 71 111 116 0
2 7 72 112 117 0
2 7 77 82 87 0
2 7 77 82 117 0
2 7 77 87 112 0
3 8 78 93 98 0
3 8 78 93 108 0
3 8 78 98 103 0
3 8 78 103 108 0
2 7 77 112 117 0
4 9 84 89 94 0
2 7 82 87 107 0
4 9 84 89 109 0
4 9 84 94 104 0
4 9 84 104 109 0
2 7 82 107 117 0
1 6 86 91 96 0
1 6 86 91 121 0
4 9 89 94 124 0
1 6 86 96 116 0
2 7 87 107 112 0
4 9 89 109 124 0
1 6 86 116 121 0
1 6 91 96 111 0
3 8 93 98 113 0
4 9 94 104 124 0
3 8 93 108 113 0
1 6 91 111 121 0
3 8 98 103 113 0
1 6 96 111 116 0
3 8 103 108 113 0
4 9 104 109 124 0
2 7 107 112 117 0
1 6 111 116 121 0
1 11 16 21 31 0
2 12 17 22 37 0
3 13 18 23 43 0
4 14 19 24 49 0
3 13 18 23 53 0
1 11 16 21 56 0
4 14 19 24 64 0
2 12 17 22 67 0
4 14 19 24 79 0
1 11 16 21 81 0
3 13 18 23 88 0
2 12 17 22 97 0
2 12 17 22 102 0
1 11 16 21 106 0
4 14 19 24 119 0
3 13 18 23 123 0
2 12 17 27 37 0
2 12 17 27 67 0
2 12 17 27 97 0
2 12 17 27 102 0
3 13 18 33 43 0
1 11 16 31 46 0
3 13 18 33 53 0
1 11 16 31 71 0
3 13 18 33 88 0
1 11 16 31 96 0
1 11 16 31 121 0
3 13 18 33 123 0
4 14 19 39 49 0
2 12 17 37 57 0
4 14 19 39 64 0
4 14 19 39 79 0
2 12 17 37 87 0
2 12 17 37 117 0
4 14 19 39 119 0
3 13 18 43 68 0
3 13 18 43 78 0
3 13 18 43 113 0
4 14 19 49 54 0
1 11 16 46 56 0
1 11 16 46 81 0
4 14 19 49 94 0
1 11 16 46 106 0
4 14 19 49 109 0
4 14 19 54 64 0
3 13 18 53 68 0
3 13 18 53 78 0
4 14 19 54 79 0
3 13 18 53 113 0
4 14 19 54 119 0
2 12 17 57 67 0
1 11 16 56 71 0
1 11 16 56 96 0
2 12 17 57 97 0
2 12 17 57 102 0
1 11 16 56 121 0
4 14 19 64 94 0
4 14 19 64 109 0
2 12 17 67 87 0
3 13 18 68 88 0
2 12 17 67 117 0
3 13 18 68 123 0
1 11 16 71 81 0
1 11 16 71 106 0
3 13 18 78 88 0
4 14 19 79 94 0
4 14 19 79 109 0
3 13 18 78 123 0
1 11 16 81 96 0
1 11 16 81 121 0
2 12 17 87 97 0
2 12 17 87 102 0
3 13 18 88 113 0
4 14 19 94 119 0
1 11 16 96 106 0
2 12 17 97 117 0
2 12 17 102 117 0
4 14 19 109 119 0
1 11 16 106 121 0
3 13 18 113 123 0
3 13 23 28 43 0
3 13 23 28 53 0
3 13 23 28 88 0
3 13 23 28 123 0
1 11 21 31 41 0
4 14 24 34 49 0
4 14 24 34 64 0
1 11 21 31 66 0
4 14 24 34 79 0
1 11 21 31 91 0
1 11 21 31 116 0
4 14 24 34 119 0
2 12 22 37 47 0
2 12 22 37 52 0
2 12 22 37 82 0
2 12 22 37 112 0
1 11 21 41 56 0
3 13 23 43 63 0
1 11 21 41 81 0
3 13 23 43 98 0
1 11 21 41 106 0
3 13 23 43 108 0
2 12 22 47 67 0
4 14 24 49 74 0
4 14 24 49 89 0
2 12 22 47 97 0
2 12 22 47 102 0
4 14 24 49 104 0
3 13 23 53 63 0
2 12 22 52 67 0
2 12 22 52 97 0
3 13 23 53 98 0
2 12 22 52 102 0
3 13 23 53 108 0
1 11 21 56 66 0
1 11 21 56 91 0
1 11 21 56 116 0
4 14 24 64 74 0
3 13 23 63 88 0
4 14 24 64 89 0
4 14 24 64 104 0
3 13 23 63 123 0
1 11 21 66 81 0
2 12 22 67 82 0
1 11 21 66 106 0
2 12 22 67 112 0
4 14 24 74 79 0
4 14 24 74 119 0
4 14 24 79 89 0
4 14 24 79 104 0
1 11 21 81 91 0
2 12 22 82 97 0
2 12 22 82 102 0
1 11 21 81 116 0
3 13 23 88 98 0
3 13 23 88 108 0
4 14 24 89 119 0
1 11 21 91 106 0
2 12 22 97 112 0
3 13 23 98 123 0
2 12 22 102 112 0
4 14 24 104 119 0
1 11 21 106 116 0
3 13 23 108 123 0
3 13 28 33 43 0
3 13 28 33 53 0
3 13 28 33 88 0
3 13 28 33 123 0
2 12 27 37 47 0
2 12 27 37 52 0
2 12 27 37 82 0
2 12 27 37 112 0
3 13 28 43 68 0
3 13 28 43 78 0
3 13 28 43 113 0
2 12 27 47 67 0
2 12 27 47 97 0
2 12 27 47 102 0
2 12 27 52 67 0
3 13 28 53 68 0
3 13 28 53 78 0
2 12 27 52 97 0
2 12 27 52 102 0
3 13 28 53 113 0
2 12 27 67 82 0
3 13 28 68 88 0
2 12 27 67 112 0
3 13 28 68 123 0
3 13 28 78 88 0
3 13 28 78 123 0
2 12 27 82 97 0
2 12 27 82 102 0
3 13 28 88 113 0
2 12 27 97 112 0
2 12 27 102 112 0
3 13 28 113 123 0
4 14 34 39 49 0
4 14 34 39 64 0
4 14 34 39 79 0
4 14 34 39 119 0
1 11 31 41 46 0
3 13 33 43 63 0
1 11 31 41 71 0
1 11 31 41 96 0
3 13 33 43 98 0
3 13 33 43 108 0
1 11 31 41 121 0
4 14 34 49 54 0
1 11 31 46 66 0
1 11 31 46 91 0
4 14 34 49 94 0
4 14 34 49 109 0
1 11 31 46 116 0
3 13 33 53 63 0
4 14 34 54 64 0
4 14 34 54 79 0
3 13 33 53 98 0
3 13 33 53 108 0
4 14 34 54 119 0
3 13 33 63 88 0
4 14 34 64 94 0
4 14 34 64 109 0
3 13 33 63 123 0
1 11 31 66 71 0
1 11 31 66 96 0
1 11 31 66 121 0
1 11 31 71 91 0
1 11 31 71 116 0
4 14 34 79 94 0
4 14 34 79 109 0
3 13 33 88 98 0
3 13 33 88 108 0
1 11 31 91 96 0
4 14 34 94 119 0
1 11 31 91 121 0
1 11 31 96 116 0
3 13 33 98 123 0
4 14 34 109 119 0
3 13 33 108 123 0
1 11 31 116 121 0
2 12 37 47 57 0
4 14 39 49 74 0
2 12 37 47 87 0
4 14 39 49 89 0
4 14 39 49 104 0
2 12 37 47 117 0
2 12 37 52 57 0
2 12 37 52 87 0
2 12 37 52 117 0
2 12 37 57 82 0
2 12 37 57 112 0
4 14 39 64 74 0
4 14 39 64 89 0
4 14 39 64 104 0
4 14 39 74 79 0
4 14 39 74 119 0
4 14 39 79 89 0
4 14 39 79 104 0
2 12 37 82 87 0
2 12 37 82 117 0
2 12 37 87 112 0
4 14 39 89 119 0
4 14 39 104 119 0
2 12 37 112 117 0
1 11 41 46 56 0
1 11 41 46 81 0
1 11 41 46 106 0
1 11 41 56 71 0
1 11 41 56 96 0
1 11 41 56 121 0
3 13 43 63 68 0
3 13 43 63 78 0
3 13 43 63 113 0
3 13 43 68 98 0
3 13 43 68 108 0
1 11 41 71 81 0
1 11 41 71 106 0
3 13 43 78 98 0
3 13 43 78 108 0
1 11 41 81 96 0
1 11 41 81 121 0
1 11 41 96 106 0
3 13 43 98 113 0
3 13 43 108 113 0
1 11 41 106 121 0
4 14 49 54 74 0
4 14 49 54 89 0
4 14 49 54 104 0
1 11 46 56 66 0
2 12 47 57 67 0
1 11 46 56 91 0
2 12 47 57 97 0
2 12 47 57 102 0
1 11 46 56 116 0
1 11 46 66 81 0
2 12 47 67 87 0
1 11 46 66 106 0
2 12 47 67 117 0
4 14 49 74 94 0
4 14 49 74 109 0
1 11 46 81 91 0
1 11 46 81 116 0
4 14 49 89 94 0
2 12 47 87 97 0
2 12 47 87 102 0
4 14 49 89 109 0
4 14 49 94 104 0
1 11 46 91 106 0
2 12 47 97 117 0
4 14 49 104 109 0
2 12 47 102 117 0
1 11 46 106 116 0
2 12 52 57 67 0
2 12 52 57 97 0
2 12 52 57 102 0
3 13 53 63 68 0
4 14 54 64 74 0
3 13 53 63 78 0
4 14 54 64 89 0
4 14 54 64 104 0
3 13 53 63 113 0
2 12 52 67 87 0
3 13 53 68 98 0
3 13 53 68 108 0
2 12 52 67 117 0
4 14 54 74 79 0
4 14 54 74 119 0
4 14 54 79 89 0
3 13 53 78 98 0
4 14 54 79 104 0
3 13 53 78 108 0
2 12 52 87 97 0
2 12 52 87 102 0
4 14 54 89 119 0
3 13 53 98 113 0
2 12 52 97 117 0
2 12 52 102 117 0
4 14 54 104 119 0
3 13 53 108 113 0
1 11 56 66 71 0
2 12 57 67 82 0
1 11 56 66 96 0
2 12 57 67 112 0
1 11 56 66 121 0
1 11 56 71 91 0
1 11 56 71 116 0
2 12 57 82 97 0
2 12 57 82 102 0
1 11 56 91 96 0
1 11 56 91 121 0
2 12 57 97 112 0
1 11 56 96 116 0
2 12 57 102 112 0
1 11 56 116 121 0
3 13 63 68 88 0
3 13 63 68 123 0
4 14 64 74 94 0
4 14 64 74 109 0
3 13 63 78 88 0
3 13 63 78 123 0
4 14 64 89 94 0
4 14 64 89 109 0
3 13 63 88 113 0
4 14 64 94 104 0
4 14 64 104 109 0
3 13 63 113 123 0
1 11 66 71 81 0
1 11 66 71 106 0
2 12 67 82 87 0
1 11 66 81 96 0
2 12 67 82 117 0
1 11 66 81 121 0
3 13 68 88 98 0
3 13 68 88 108 0
2 12 67 87 112 0
1 11 66 96 106 0
3 13 68 98 123 0
1 11 66 106 121 0
3 13 68 108 123 0
2 12 67 112 117 0
4 14 74 79 94 0
4 14 74 79 109 0
1 11 71 81 91 0
1 11 71 81 116 0
1 11 71 91 106 0
4 14 74 94 119 0
1 11 71 106 116 0
4 14 74 109 119 0
4 14 79 89 94 0
3 13 78 88 98 0
3 13 78 88 108 0
4 14 79 89 109 0
4 14 79 94 104 0
3 13 78 98 123 0
4 14 79 104 109 0
3 13 78 108 123 0
2 12 82 87 97 0
2 12 82 87 102 0
1 11 81 91 96 0
1 11 81 91 121 0
1 11 81 96 116 0
2 12 82 97 117 0
2 12 82 102 117 0
1 11 81 116 121 0
4 14 89 94 119 0
2 12 87 97 112 0
3 13 88 98 113 0
2 12 87 102 112 0
3 13 88 108 113 0
4 14 89 109 119 0
1 11 91 96 106 0
4 14 94 104 119 0
1 11 91 106 121 0
1 11 96 106 116 0
2 12 97 112 117 0
3 13 98 113 123 0
4 14 104 109 119 0
2 12 102 112 117 0
3 13 108 113 123 0
1 11 106 116 121 0
4 19 24 29 49 0
4 19 24 29 64 0
4 19 24 29 79 0
4 19 24 29 119 0
1 16 21 31 36 0
1 16 21 31 61 0
1 16 21 31 86 0
1 16 21 31 111 0
2 17 22 37 42 0
1 16 21 36 56 0
2 17 22 37 72 0
2 17 22 37 77 0
1 16 21 36 81 0
1 16 21 36 106 0
2 17 22 37 107 0
3 18 23 43 48 0
3 18 23 43 58 0
2 17 22 42 67 0
3 18 23 43 93 0
2 17 22 42 97 0
2 17 22 42 102 0
3 18 23 43 103 0
3 18 23 48 53 0
4 19 24 49 69 0
4 19 24 49 84 0
3 18 23 48 88 0
3 18 23 48 123 0
4 19 24 49 124 0
3 18 23 53 58 0
3 18 23 53 93 0
3 18 23 53 103 0
1 16 21 56 61 0
1 16 21 56 86 0
3 18 23 58 88 0
1 16 21 56 111 0
3 18 23 58 123 0
4 19 24 64 69 0
1 16 21 61 81 0
4 19 24 64 84 0
1 16 21 61 106 0
4 19 24 64 124 0
2 17 22 67 72 0
2 17 22 67 77 0
4 19 24 69 79 0
2 17 22 67 107 0
4 19 24 69 119 0
2 17 22 72 97 0
2 17 22 72 102 0
4 19 24 79 84 0
2 17 22 77 97 0
2 17 22 77 102 0
4 19 24 79 124 0
1 16 21 81 86 0
1 16 21 81 111 0
4 19 24 84 119 0
3 18 23 88 93 0
3 18 23 88 103 0
1 16 21 86 106 0
3 18 23 93 123 0
2 17 22 97 107 0
2 17 22 102 107 0
3 18 23 103 123 0
1 16 21 106 111 0
4 19 24 119 124 0
2 17 27 37 42 0
4 19 29 39 49 0
4 19 29 39 64 0
2 17 27 37 72 0
2 17 27 37 77 0
4 19 29 39 79 0
2 17 27 37 107 0
4 19 29 39 119 0
2 17 27 42 67 0
2 17 27 42 97 0
2 17 27 42 102 0
4 19 29 49 54 0
4 19 29 49 94 0
4 19 29 49 109 0
4 19 29 54 64 0
4 19 29 54 79 0
4 19 29 54 119 0
4 19 29 64 94 0
4 19 29 64 109 0
2 17 27 67 72 0
2 17 27 67 77 0
2 17 27 67 107 0
2 17 27 72 97 0
2 17 27 72 102 0
4 19 29 79 94 0
2 17 27 77 97 0
2 17 27 77 102 0
4 19 29 79 109 0
4 19 29 94 119 0
2 17 27 97 107 0
2 17 27 102 107 0
4 19 29 109 119 0
1 16 31 36 46 0
1 16 31 36 71 0
1 16 31 36 96 0
1 16 31 36 121 0
3 18 33 43 48 0
3 18 33 43 58 0
3 18 33 43 93 0
3 18 33 43 103 0
3 18 33 48 53 0
1 16 31 46 61 0
1 16 31 46 86 0
3 18 33 48 88 0
1 16 31 46 111 0
3 18 33 48 123 0
3 18 33 53 58 0
3 18 33 53 93 0
3 18 33 53 103 0
3 18 33 58 88 0
3 18 33 58 123 0
1 16 31 61 71 0
1 16 31 61 96 0
1 16 31 61 121 0
1 16 31 71 86 0
1 16 31 71 111 0
3 18 33 88 93 0
1 16 31 86 96 0
3 18 33 88 103 0
1 16 31 86 121 0
3 18 33 93 123 0
1 16 31 96 111 0
3 18 33 103 123 0
1 16 31 111 121 0
2 17 37 42 57 0
2 17 37 42 87 0
2 17 37 42 117 0
1 16 36 46 56 0
4 19 39 49 69 0
1 16 36 46 81 0
4 19 39 49 84 0
1 16 36 46 106 0
4 19 39 49 124 0
1 16 36 56 71 0
2 17 37 57 72 0
2 17 37 57 77 0
1 16 36 56 96 0
2 17 37 57 107 0
1 16 36 56 121 0
4 19 39 64 69 0
4 19 39 64 84 0
4 19 39 64 124 0
4 19 39 69 79 0
4 19 39 69 119 0
1 16 36 71 81 0
2 17 37 72 87 0
1 16 36 71 106 0
2 17 37 72 117 0
4 19 39 79 84 0
2 17 37 77 87 0
2 17 37 77 117 0
4 19 39 79 124 0
1 16 36 81 96 0
4 19 39 84 119 0
1 16 36 81 121 0
2 17 37 87 107 0
1 16 36 96 106 0
2 17 37 107 117 0
1 16 36 106 121 0
4 19 39 119 124 0
3 18 43 48 68 0
3 18 43 48 78 0
3 18 43 48 113 0
2 17 42 57 67 0
3 18 43 58 68 0
3 18 43 58 78 0
2 17 42 57 97 0
2 17 42 57 102 0
3 18 43 58 113 0
2 17 42 67 87 0
3 18 43 68 93 0
3 18 43 68 103 0
2 17 42 67 117 0
3 18 43 78 93 0
3 18 43 78 103 0
2 17 42 87 97 0
2 17 42 87 102 0
3 18 43 93 113 0
2 17 42 97 117 0
3 18 43 103 113 0
2 17 42 102 117 0
3 18 48 53 68 0
4 19 49 54 69 0
3 18 48 53 78 0
4 19 49 54 84 0
3 18 48 53 113 0
4 19 49 54 124 0
1 16 46 56 61 0
1 16 46 56 86 0
1 16 46 56 111 0
1 16 46 61 81 0
1 16 46 61 106 0
3 18 48 68 88 0
4 19 49 69 94 0
4 19 49 69 109 0
3 18 48 68 123 0
3 18 48 78 88 0
3 18 48 78 123 0
1 16 46 81 86 0
4 19 49 84 94 0
4 19 49 84 109 0
1 16 46 81 111 0
1 16 46 86 106 0
3 18 48 88 113 0
4 19 49 94 124 0
1 16 46 106 111 0
4 19 49 109 124 0
3 18 48 113 123 0
3 18 53 58 68 0
3 18 53 58 78 0
3 18 53 58 113 0
4 19 54 64 69 0
4 19 54 64 84 0
4 19 54 64 124 0
4 19 54 69 79 0
3 18 53 68 93 0
3 18 53 68 103 0
4 19 54 69 119 0
4 19 54 79 84 0
3 18 53 78 93 0
3 18 53 78 103 0
4 19 54 79 124 0
4 19 54 84 119 0
3 18 53 93 113 0
3 18 53 103 113 0
4 19 54 119 124 0
1 16 56 61 71 0
1 16 56 61 96 0
1 16 56 61 121 0
2 17 57 67 72 0
2 17 57 67 77 0
3 18 58 68 88 0
2 17 57 67 107 0
3 18 58 68 123 0
1 16 56 71 86 0
2 17 57 72 97 0
2 17 57 72 102 0
1 16 56 71 111 0
3 18 58 78 88 0
2 17 57 77 97 0
2 17 57 77 102 0
3 18 58 78 123 0
1 16 56 86 96 0
3 18 58 88 113 0
1 16 56 86 121 0
2 17 57 97 107 0
1 16 56 96 111 0
2 17 57 102 107 0
1 16 56 111 121 0
3 18 58 113 123 0
4 19 64 69 94 0
4 19 64 69 109 0
1 16 61 71 81 0
1 16 61 71 106 0
4 19 64 84 94 0
1 16 61 81 96 0
4 19 64 84 109 0
1 16 61 81 121 0
4 19 64 94 124 0
1 16 61 96 106 0
1 16 61 106 121 0
4 19 64 109 124 0
2 17 67 72 87 0
2 17 67 72 117 0
2 17 67 77 87 0
4 19 69 79 94 0
4 19 69 79 109 0
2 17 67 77 117 0
3 18 68 88 93 0
3 18 68 88 103 0
2 17 67 87 107 0
4 19 69 94 119 0
3 18 68 93 123 0
3 18 68 103 123 0
2 17 67 107 117 0
4 19 69 109 119 0
1 16 71 81 86 0
1 16 71 81 111 0
2 17 72 87 97 0
2 17 72 87 102 0
1 16 71 86 106 0
2 17 72 97 117 0
2 17 72 102 117 0
1 16 71 106 111 0
4 19 79 84 94 0
4 19 79 84 109 0
3 18 78 88 93 0
2 17 77 87 97 0
2 17 77 87 102 0
3 18 78 88 103 0
3 18 78 93 123 0
4 19 79 94 124 0
2 17 77 97 117 0
2 17 77 102 117 0
3 18 78 103 123 0
4 19 79 109 124 0
1 16 81 86 96 0
1 16 81 86 121 0
4 19 84 94 119 0
1 16 81 96 111 0
4 19 84 109 119 0
1 16 81 111 121 0
3 18 88 93 113 0
1 16 86 96 106 0
2 17 87 97 107 0
2 17 87 102 107 0
3 18 88 103 113 0
1 16 86 106 121 0
3 18 93 113 123 0
4 19 94 119 124 0
1 16 96 106 111 0
2 17 97 107 117 0
2 17 102 107 117 0
3 18 103 113 123 0
1 16 106 111 121 0
4 19 109 119 124 0
4 24 29 34 49 0
4 24 29 34 64 0
4 24 29 34 79 0
4 24 29 34 119 0
3 23 28 43 48 0
3 23 28 43 58 0
3 23 28 43 93 0
3 23 28 43 103 0
3 23 28 48 53 0
4 24 29 49 74 0
3 23 28 48 88 0
4 24 29 49 89 0
4 24 29 49 104 0
3 23 28 48 123 0
3 23 28 53 58 0
3 23 28 53 93 0
3 23 28 53 103 0
3 23 28 58 88 0
3 23 28 58 123 0
4 24 29 64 74 0
4 24 29 64 89 0
4 24 29 64 104 0
4 24 29 74 79 0
4 24 29 74 119 0
4 24 29 79 89 0
4 24 29 79 104 0
3 23 28 88 93 0
3 23 28 88 103 0
4 24 29 89 119 0
3 23 28 93 123 0
4 24 29 104 119 0
3 23 28 103 123 0
1 21 31 36 41 0
1 21 31 36 66 0
1 21 31 36 91 0
1 21 31 36 116 0
1 21 31 41 61 0
1 21 31 41 86 0
1 21 31 41 111 0
4 24 34 49 69 0
4 24 34 49 84 0
4 24 34 49 124 0
1 21 31 61 66 0
4 24 34 64 69 0
4 24 34 64 84 0
1 21 31 61 91 0
1 21 31 61 116 0
4 24 34 64 124 0
4 24 34 69 79 0
1 21 31 66 86 0
1 21 31 66 111 0
4 24 34 69 119 0
4 24 34 79 84 0
4 24 34 79 124 0
4 24 34 84 119 0
1 21 31 86 91 0
1 21 31 86 116 0
1 21 31 91 111 0
1 21 31 111 116 0
4 24 34 119 124 0
2 22 37 42 47 0
2 22 37 42 52 0
1 21 36 41 56 0
1 21 36 41 81 0
2 22 37 42 82 0
1 21 36 41 106 0
2 22 37 42 112 0
2 22 37 47 72 0
2 22 37 47 77 0
2 22 37 47 107 0
2 22 37 52 72 0
2 22 37 52 77 0
2 22 37 52 107 0
1 21 36 56 66 0
1 21 36 56 91 0
1 21 36 56 116 0
1 21 36 66 81 0
1 21 36 66 106 0
2 22 37 72 82 0
2 22 37 72 112 0
2 22 37 77 82 0
2 22 37 77 112 0
1 21 36 81 91 0
2 22 37 82 107 0
1 21 36 81 116 0
1 21 36 91 106 0
2 22 37 107 112 0
1 21 36 106 116 0
3 23 43 48 63 0
2 22 42 47 67 0
2 22 42 47 97 0
3 23 43 48 98 0
2 22 42 47 102 0
3 23 43 48 108 0
2 22 42 52 67 0
2 22 42 52 97 0
2 22 42 52 102 0
1 21 41 56 61 0
3 23 43 58 63 0
1 21 41 56 86 0
3 23 43 58 98 0
3 23 43 58 108 0
1 21 41 56 111 0
1 21 41 61 81 0
3 23 43 63 93 0
3 23 43 63 103 0
1 21 41 61 106 0
2 22 42 67 82 0
2 22 42 67 112 0
1 21 41 81 86 0
2 22 42 82 97 0
2 22 42 82 102 0
1 21 41 81 111 0
1 21 41 86 106 0
3 23 43 93 98 0
3 23 43 93 108 0
3 23 43 98 103 0
2 22 42 97 112 0
3 23 43 103 108 0
2 22 42 102 112 0
1 21 41 106 111 0
3 23 48 53 63 0
3 23 48 53 98 0
3 23 48 53 108 0
3 23 48 63 88 0
3 23 48 63 123 0
2 22 47 67 72 0
4 24 49 69 74 0
2 22 47 67 77 0
4 24 49 69 89 0
4 24 49 69 104 0
2 22 47 67 107 0
4 24 49 74 84 0
2 22 47 72 97 0
2 22 47 72 102 0
4 24 49 74 124 0
2 22 47 77 97 0
2 22 47 77 102 0
4 24 49 84 89 0
4 24 49 84 104 0
3 23 48 88 98 0
3 23 48 88 108 0
4 24 49 89 124 0
2 22 47 97 107 0
3 23 48 98 123 0
2 22 47 102 107 0
4 24 49 104 124 0
3 23 48 108 123 0
3 23 53 58 63 0
3 23 53 58 98 0
3 23 53 58 108 0
3 23 53 63 93 0
3 23 53 63 103 0
2 22 52 67 72 0
2 22 52 67 77 0
2 22 52 67 107 0
2 22 52 72 97 0
2 22 52 72 102 0
2 22 52 77 97 0
2 22 52 77 102 0
3 23 53 93 98 0
3 23 53 93 108 0
3 23 53 98 103 0
2 22 52 97 107 0
2 22 52 102 107 0
3 23 53 103 108 0
1 21 56 61 66 0
3 23 58 63 88 0
1 21 56 61 91 0
1 21 56 61 116 0
3 23 58 63 123 0
1 21 56 66 86 0
1 21 56 66 111 0
1 21 56 86 91 0
3 23 58 88 98 0
3 23 58 88 108 0
1 21 56 86 116 0
1 21 56 91 111 0
3 23 58 98 123 0
3 23 58 108 123 0
1 21 56 111 116 0
4 24 64 69 74 0
1 21 61 66 81 0
4 24 64 69 89 0
4 24 64 69 104 0
1 21 61 66 106 0
4 24 64 74 84 0
4 24 64 74 124 0
4 24 64 84 89 0
1 21 61 81 91 0
4 24 64 84 104 0
1 21 61 81 116 0
3 23 63 88 93 0
3 23 63 88 103 0
4 24 64 89 124 0
1 21 61 91 106 0
3 23 63 93 123 0
3 23 63 103 123 0
4 24 64 104 124 0
1 21 61 106 116 0
4 24 69 74 79 0
2 22 67 72 82 0
2 22 67 72 112 0
4 24 69 74 119 0
2 22 67 77 82 0
4 24 69 79 89 0
4 24 69 79 104 0
2 22 67 77 112 0
1 21 66 81 86 0
2 22 67 82 107 0
1 21 66 81 111 0
1 21 66 86 106 0
4 24 69 89 119 0
4 24 69 104 119 0
1 21 66 106 111 0
2 22 67 107 112 0
4 24 74 79 84 0
4 24 74 79 124 0
2 22 72 82 97 0
2 22 72 82 102 0
4 24 74 84 119 0
2 22 72 97 112 0
2 22 72 102 112 0
4 24 74 119 124 0
4 24 79 84 89 0
2 22 77 82 97 0
2 22 77 82 102 0
4 24 79 84 104 0
4 24 79 89 124 0
2 22 77 97 112 0
2 22 77 102 112 0
4 24 79 104 124 0
1 21 81 86 91 0
1 21 81 86 116 0
4 24 84 89 119 0
1 21 81 91 111 0
2 22 82 97 107 0
2 22 82 102 107 0
4 24 84 104 119 0
1 21 81 111 116 0
3 23 88 93 98 0
1 21 86 91 106 0
3 23 88 93 108 0
3 23 88 98 103 0
3 23 88 103 108 0
1 21 86 106 116 0
4 24 89 119 124 0
3 23 93 98 123 0
1 21 91 106 111 0
3 23 93 108 123 0
3 23 98 103 123 0
2 22 97 107 112 0
2 22 102 107 112 0
3 23 103 108 123 0
4 24 104 119 124 0
1 21 106 111 116 0
4 29 34 39 49 0
4 29 34 39 64 0
4 29 34 39 79 0
4 29 34 39 119 0
3 28 33 43 48 0
3 28 33 43 58 0
3 28 33 43 93 0
3 28 33 43 103 0
3 28 33 48 53 0
4 29 34 49 54 0
3 28 33 48 88 0
4 29 34 49 94 0
4 29 34 49 109 0
3 28 33 48 123 0
3 28 33 53 58 0
4 29 34 54 64 0
4 29 34 54 79 0
3 28 33 53 93 0
3 28 33 53 103 0
4 29 34 54 119 0
3 28 33 58 88 0
3 28 33 58 123 0
4 29 34 64 94 0
4 29 34 64 109 0
4 29 34 79 94 0
4 29 34 79 109 0
3 28 33 88 93 0
3 28 33 88 103 0
4 29 34 94 119 0
3 28 33 93 123 0
3 28 33 103 123 0
4 29 34 109 119 0
2 27 37 42 47 0
2 27 37 42 52 0
2 27 37 42 82 0
2 27 37 42 112 0
2 27 37 47 72 0
4 29 39 49 74 0
2 27 37 47 77 0
4 29 39 49 89 0
4 29 39 49 104 0
2 27 37 47 107 0
2 27 37 52 72 0
2 27 37 52 77 0
2 27 37 52 107 0
4 29 39 64 74 0
4 29 39 64 89 0
4 29 39 64 104 0
4 29 39 74 79 0
2 27 37 72 82 0
2 27 37 72 112 0
4 29 39 74 119 0
2 27 37 77 82 0
4 29 39 79 89 0
4 29 39 79 104 0
2 27 37 77 112 0
2 27 37 82 107 0
4 29 39 89 119 0
4 29 39 104 119 0
2 27 37 107 112 0
2 27 42 47 67 0
3 28 43 48 68 0
3 28 43 48 78 0
2 27 42 47 97 0
2 27 42 47 102 0
3 28 43 48 113 0
2 27 42 52 67 0
2 27 42 52 97 0
2 27 42 52 102 0
3 28 43 58 68 0
3 28 43 58 78 0
3 28 43 58 113 0
2 27 42 67 82 0
3 28 43 68 93 0
3 28 43 68 103 0
2 27 42 67 112 0
3 28 43 78 93 0
3 28 43 78 103 0
2 27 42 82 97 0
2 27 42 82 102 0
3 28 43 93 113 0
2 27 42 97 112 0
2 27 42 102 112 0
3 28 43 103 113 0
3 28 48 53 68 0
4 29 49 54 74 0
3 28 48 53 78 0
4 29 49 54 89 0
4 29 49 54 104 0
3 28 48 53 113 0
2 27 47 67 72 0
2 27 47 67 77 0
3 28 48 68 88 0
2 27 47 67 107 0
3 28 48 68 123 0
4 29 49 74 94 0
2 27 47 72 97 0
2 27 47 72 102 0
4 29 49 74 109 0
3 28 48 78 88 0
2 27 47 77 97 0
2 27 47 77 102 0
3 28 48 78 123 0
4 29 49 89 94 0
4 29 49 89 109 0
3 28 48 88 113 0
4 29 49 94 104 0
2 27 47 97 107 0
2 27 47 102 107 0
4 29 49 104 109 0
3 28 48 113 123 0
3 28 53 58 68 0
3 28 53 58 78 0
3 28 53 58 113 0
4 29 54 64 74 0
4 29 54 64 89 0
4 29 54 64 104 0
2 27 52 67 72 0
2 27 52 67 77 0
3 28 53 68 93 0
3 28 53 68 103 0
2 27 52 67 107 0
4 29 54 74 79 0
2 27 52 72 97 0
2 27 52 72 102 0
4 29 54 74 119 0
4 29 54 79 89 0
3 28 53 78 93 0
2 27 52 77 97 0
2 27 52 77 102 0
3 28 53 78 103 0
4 29 54 79 104 0
5 30 55 80 105 0
5 30 55 85 125 0
4 29 54 89 119 0
3 28 53 93 113 0
2 27 52 97 107 0
2 27 52 102 107 0
3 28 53 103 113 0
4 29 54 104 119 0
3 28 58 68 88 0
3 28 58 68 123 0
3 28 58 78 88 0
3 28 58 78 123 0
5 30 60 85 120 0
3 28 58 88 113 0
5 30 60 100 105 0
3 28 58 113 123 0
4 29 64 74 94 0
4 29 64 74 109 0
5 30 65 80 120 0
4 29 64 89 94 0
4 29 64 89 109 0
4 29 64 94 104 0
5 30 65 100 125 0
4 29 64 104 109 0
2 27 67 72 82 0
2 27 67 72 112 0
2 27 67 77 82 0
2 27 67 77 112 0
2 27 67 82 107 0
3 28 68 88 93 0
3 28 68 88 103 0
3 28 68 93 123 0
3 28 68 103 123 0
2 27 67 107 112 0
4 29 74 79 94 0
4 29 74 79 109 0
2 27 72 82 97 0
2 27 72 82 102 0
4 29 74 94 119 0
2 27 72 97 112 0
2 27 72 102 112 0
4 29 74 109 119 0
2 27 77 82 97 0
2 27 77 82 102 0
3 28 78 88 93 0
4 29 79 89 94 0
3 28 78 88 103 0
4 29 79 89 109 0
4 29 79 94 104 0
3 28 78 93 123 0
2 27 77 97 112 0
4 29 79 104 109 0
2 27 77 102 112 0
3 28 78 103 123 0
2 27 82 97 107 0
2 27 82 102 107 0
3 28 88 93 113 0
4 29 89 94 119 0
3 28 88 103 113 0
4 29 89 109 119 0
4 29 94 104 119 0
3 28 93 113 123 0
2 27 97 107 112 0
2 27 102 107 112 0
4 29 104 109 119 0
3 28 103 113 123 0
1 31 36 41 46 0
1 31 36 41 71 0
1 31 36 41 96 0
1 31 36 41 121 0
1 31 36 46 66 0
4 34 39 49 69 0
4 34 39 49 84 0
1 31 36 46 91 0
1 31 36 46 116 0
4 34 39 49 124 0
4 34 39 64 69 0
4 34 39 64 84 0
4 34 39 64 124 0
1 31 36 66 71 0
4 34 39 69 79 0
1 31 36 66 96 0
4 34 39 69 119 0
1 31 36 66 121 0
1 31 36 71 91 0
1 31 36 71 116 0
4 34 39 79 84 0
4 34 39 79 124 0
4 34 39 84 119 0
1 31 36 91 96 0
1 31 36 91 121 0
1 31 36 96 116 0
1 31 36 116 121 0
4 34 39 119 124 0
1 31 41 46 61 0
3 33 43 48 63 0
1 31 41 46 86 0
3 33 43 48 98 0
3 33 43 48 108 0
1 31 41 46 111 0
3 33 43 58 63 0
3 33 43 58 98 0
3 33 43 58 108 0
1 31 41 61 71 0
3 33 43 63 93 0
1 31 41 61 96 0
3 33 43 63 103 0
1 31 41 61 121 0
1 31 41 71 86 0
1 31 41 71 111 0
1 31 41 86 96 0
1 31 41 86 121 0
3 33 43 93 98 0
3 33 43 93 108 0
3 33 43 98 103 0
1 31 41 96 111 0
3 33 43 103 108 0
1 31 41 111 121 0
3 33 48 53 63 0
4 34 49 54 69 0
4 34 49 54 84 0
3 33 48 53 98 0
3 33 48 53 108 0
4 34 49 54 124 0
1 31 46 61 66 0
3 33 48 63 88 0
1 31 46 61 91 0
1 31 46 61 116 0
3 33 48 63 123 0
1 31 46 66 86 0
4 34 49 69 94 0
4 34 49 69 109 0
1 31 46 66 111 0
4 34 49 84 94 0
4 34 49 84 109 0
1 31 46 86 91 0
3 33 48 88 98 0
3 33 48 88 108 0
1 31 46 86 116 0
1 31 46 91 111 0
4 34 49 94 124 0
3 33 48 98 123 0
3 33 48 108 123 0
4 34 49 109 124 0
1 31 46 111 116 0
3 33 53 58 63 0
3 33 53 58 98 0
3 33 53 58 108 0
4 34 54 64 69 0
4 34 54 64 84 0
3 33 53 63 93 0
3 33 53 63 103 0
4 34 54 64 124 0
4 34 54 69 79 0
4 34 54 69 119 0
4 34 54 79 84 0
4 34 54 79 124 0
4 34 54 84 119 0
3 33 53 93 98 0
3 33 53 93 108 0
3 33 53 98 103 0
3 33 53 103 108 0
4 34 54 119 124 0
3 33 58 63 88 0
3 33 58 63 123 0
5 35 60 85 115 0
3 33 58 88 98 0
3 33 58 88 108 0
5 35 60 95 105 0
3 33 58 98 123 0
3 33 58 108 123 0
1 31 61 66 71 0
4 34 64 69 94 0
1 31 61 66 96 0
4 34 64 69 109 0
1 31 61 66 121 0
1 31 61 71 91 0
1 31 61 71 116 0
5 35 65 80 115 0
4 34 64 84 94 0
4 34 64 84 109 0
3 33 63 88 93 0
3 33 63 88 103 0
1 31 61 91 96 0
1 31 61 91 121 0
3 33 63 93 123 0
4 34 64 94 124 0
5 35 65 95 125 0
1 31 61 96 116 0
3 33 63 103 123 0
4 34 64 109 124 0
1 31 61 116 121 0
1 31 66 71 86 0
1 31 66 71 111 0
4 34 69 79 94 0
4 34 69 79 109 0
1 31 66 86 96 0
1 31 66 86 121 0
4 34 69 94 119 0
1 31 66 96 111 0
4 34 69 109 119 0
1 31 66 111 121 0
5 35 75 80 105 0
5 35 75 85 125 0
1 31 71 86 91 0
1 31 71 86 116 0
1 31 71 91 111 0
1 31 71 111 116 0
4 34 79 84 94 0
4 34 79 84 109 0
4 34 79 94 124 0
4 34 79 109 124 0
4 34 84 94 119 0
4 34 84 109 119 0
1 31 86 91 96 0
3 33 88 93 98 0
3 33 88 93 108 0
1 31 86 91 121 0
3 33 88 98 103 0
1 31 86 96 116 0
3 33 88 103 108 0
1 31 86 116 121 0
1 31 91 96 111 0
3 33 93 98 123 0
3 33 93 108 123 0
1 31 91 111 121 0
4 34 94 119 124 0
3 33 98 103 123 0
1 31 96 111 116 0
3 33 103 108 123 0
4 34 109 119 124 0
1 31 111 116 121 0
1 36 41 46 56 0
2 37 42 47 57 0
1 36 41 46 81 0
2 37 42 47 87 0
1 36 41 46 106 0
2 37 42 47 117 0
2 37 42 52 57 0
2 37 42 52 87 0
2 37 42 52 117 0
1 36 41 56 71 0
2 37 42 57 82 0
1 36 41 56 96 0
2 37 42 57 112 0
1 36 41 56 121 0
1 36 41 71 81 0
1 36 41 71 106 0
2 37 42 82 87 0
1 36 41 81 96 0
2 37 42 82 117 0
1 36 41 81 121 0
2 37 42 87 112 0
1 36 41 96 106 0
1 36 41 106 121 0
2 37 42 112 117 0
1 36 46 56 66 0
2 37 47 57 72 0
2 37 47 57 77 0
1 36 46 56 91 0
2 37 47 57 107 0
1 36 46 56 116 0
4 39 49 69 74 0
1 36 46 66 81 0
4 39 49 69 89 0
4 39 49 69 104 0
1 36 46 66 106 0
4 39 49 74 84 0
2 37 47 72 87 0
2 37 47 72 117 0
4 39 49 74 124 0
2 37 47 77 87 0
2 37 47 77 117 0
4 39 49 84 89 0
1 36 46 81 91 0
4 39 49 84 104 0
1 36 46 81 116 0
2 37 47 87 107 0
4 39 49 89 124 0
1 36 46 91 106 0
4 39 49 104 124 0
1 36 46 106 116 0
2 37 47 107 117 0
2 37 52 57 72 0
2 37 52 57 77 0
2 37 52 57 107 0
2 37 52 72 87 0
2 37 52 72 117 0
2 37 52 77 87 0
2 37 52 77 117 0
5 40 55 85 115 0
2 37 52 87 107 0
5 40 55 95 105 0
2 37 52 107 117 0
1 36 56 66 71 0
1 36 56 66 96 0
1 36 56 66 121 0
2 37 57 72 82 0
1 36 56 71 91 0
2 37 57 72 112 0
1 36 56 71 116 0
2 37 57 77 82 0
2 37 57 77 112 0
2 37 57 82 107 0
1 36 56 91 96 0
1 36 56 91 121 0
1 36 56 96 116 0
2 37 57 107 112 0
1 36 56 116 121 0
4 39 64 69 74 0
4 39 64 69 89 0
4 39 64 69 104 0
4 39 64 74 84 0
4 39 64 74 124 0
4 39 64 84 89 0
4 39 64 84 104 0
4 39 64 89 124 0
5 40 65 95 120 0
5 40 65 100 115 0
4 39 64 104 124 0
4 39 69 74 79 0
1 36 66 71 81 0
1 36 66 71 106 0
4 39 69 74 119 0
4 39 69 79 89 0
4 39 69 79 104 0
1 36 66 81 96 0
1 36 66 81 121 0
4 39 69 89 119 0
1 36 66 96 106 0
4 39 69 104 119 0
1 36 66 106 121 0
4 39 74 79 84 0
4 39 74 79 124 0
2 37 72 82 87 0
1 36 71 81 91 0
1 36 71 81 116 0
2 37 72 82 117 0
4 39 74 84 119 0
5 40 75 85 120 0
2 37 72 87 112 0
1 36 71 91 106 0
5 40 75 100 105 0
1 36 71 106 116 0
2 37 72 112 117 0
4 39 74 119 124 0
2 37 77 82 87 0
4 39 79 84 89 0
4 39 79 84 104 0
2 37 77 82 117 0
2 37 77 87 112 0
4 39 79 89 124 0
4 39 79 104 124 0
2 37 77 112 117 0
2 37 82 87 107 0
4 39 84 89 119 0
1 36 81 91 96 0
1 36 81 91 121 0
1 36 81 96 116 0
4 39 84 104 119 0
2 37 82 107 117 0
1 36 81 116 121 0
2 37 87 107 112 0
4 39 89 119 124 0
1 36 91 96 106 0
1 36 91 106 121 0
1 36 96 106 116 0
4 39 104 119 124 0
2 37 107 112 117 0
1 36 106 116 121 0
1 41 46 56 61 0
2 42 47 57 67 0
1 41 46 56 86 0
2 42 47 57 97 0
2 42 47 57 102 0
1 41 46 56 111 0
3 43 48 63 68 0
3 43 48 63 78 0
1 41 46 61 81 0
1 41 46 61 106 0
3 43 48 63 113 0
2 42 47 67 87 0
3 43 48 68 98 0
3 43 48 68 108 0
2 42 47 67 117 0
3 43 48 78 98 0
3 43 48 78 108 0
1 41 46 81 86 0
1 41 46 81 111 0
2 42 47 87 97 0
2 42 47 87 102 0
1 41 46 86 106 0
3 43 48 98 113 0
2 42 47 97 117 0
2 42 47 102 117 0
1 41 46 106 111 0
3 43 48 108 113 0
2 42 52 57 67 0
2 42 52 57 97 0
2 42 52 57 102 0
2 42 52 67 87 0
2 42 52 67 117 0
5 45 55 80 115 0
2 42 52 87 97 0
2 42 52 87 102 0
5 45 55 95 125 0
2 42 52 97 117 0
2 42 52 102 117 0
3 43 58 63 68 0
1 41 56 61 71 0
3 43 58 63 78 0
1 41 56 61 96 0
3 43 58 63 113 0
1 41 56 61 121 0
2 42 57 67 82 0
3 43 58 68 98 0
3 43 58 68 108 0
2 42 57 67 112 0
1 41 56 71 86 0
1 41 56 71 111 0
3 43 58 78 98 0
3 43 58 78 108 0
2 42 57 82 97 0
2 42 57 82 102 0
1 41 56 86 96 0
1 41 56 86 121 0
5 45 60 95 120 0
1 41 56 96 111 0
2 42 57 97 112 0
3 43 58 98 113 0
5 45 60 100 115 0
2 42 57 102 112 0
3 43 58 108 113 0
1 41 56 111 121 0
3 43 63 68 93 0
3 43 63 68 103 0
1 41 61 71 81 0
1 41 61 71 106 0
3 43 63 78 93 0
3 43 63 78 103 0
1 41 61 81 96 0
1 41 61 81 121 0
3 43 63 93 113 0
1 41 61 96 106 0
3 43 63 103 113 0
1 41 61 106 121 0
2 42 67 82 87 0
2 42 67 82 117 0
2 42 67 87 112 0
3 43 68 93 98 0
3 43 68 93 108 0
3 43 68 98 103 0
3 43 68 103 108 0
2 42 67 112 117 0
5 45 75 80 120 0
1 41 71 81 86 0
1 41 71 81 111 0
1 41 71 86 106 0
5 45 75 100 125 0
1 41 71 106 111 0
3 43 78 93 98 0
3 43 78 93 108 0
3 43 78 98 103 0
3 43 78 103 108 0
1 41 81 86 96 0
2 42 82 87 97 0
2 42 82 87 102 0
1 41 81 86 121 0
1 41 81 96 111 0
2 42 82 97 117 0
2 42 82 102 117 0
1 41 81 111 121 0
1 41 86 96 106 0
2 42 87 97 112 0
2 42 87 102 112 0
1 41 86 106 121 0
3 43 93 98 113 0
3 43 93 108 113 0
3 43 98 103 113 0
1 41 96 106 111 0
2 42 97 112 117 0
3 43 103 108 113 0
2 42 102 112 117 0
1 41 106 111 121 0
3 48 53 63 68 0
3 48 53 63 78 0
3 48 53 63 113 0
4 49 54 69 74 0
4 49 54 69 89 0
3 48 53 68 98 0
4 49 54 69 104 0
3 48 53 68 108 0
4 49 54 74 84 0
4 49 54 74 124 0
3 48 53 78 98 0
3 48 53 78 108 0
4 49 54 84 89 0
4 49 54 84 104 0
4 49 54 89 124 0
3 48 53 98 113 0
4 49 54 104 124 0
3 48 53 108 113 0
1 46 56 61 66 0
1 46 56 61 91 0
1 46 56 61 116 0
2 47 57 67 72 0
2 47 57 67 77 0
1 46 56 66 86 0
2 47 57 67 107 0
1 46 56 66 111 0
2 47 57 72 97 0
2 47 57 72 102 0
2 47 57 77 97 0
2 47 57 77 102 0
1 46 56 86 91 0
1 46 56 86 116 0
1 46 56 91 111 0
2 47 57 97 107 0
2 47 57 102 107 0
1 46 56 111 116 0
1 46 61 66 81 0
3 48 63 68 88 0
1 46 61 66 106 0
3 48 63 68 123 0
3 48 63 78 88 0
3 48 63 78 123 0
1 46 61 81 91 0
1 46 61 81 116 0
3 48 63 88 113 0
1 46 61 91 106 0
1 46 61 106 116 0
3 48 63 113 123 0
2 47 67 72 87 0
4 49 69 74 94 0
4 49 69 74 109 0
2 47 67 72 117 0
2 47 67 77 87 0
2 47 67 77 117 0
1 46 66 81 86 0
1 46 66 81 111 0
4 49 69 89 94 0
3 48 68 88 98 0
1 46 66 86 106 0
2 47 67 87 107 0
3 48 68 88 108 0
4 49 69 89 109 0
4 49 69 94 104 0
3 48 68 98 123 0
4 49 69 104 109 0
1 46 66 106 111 0
2 47 67 107 117 0
3 48 68 108 123 0
4 49 74 84 94 0
4 49 74 84 109 0
2 47 72 87 97 0
2 47 72 87 102 0
4 49 74 94 124 0
2 47 72 97 117 0
2 47 72 102 117 0
4 49 74 109 124 0
2 47 77 87 97 0
3 48 78 88 98 0
2 47 77 87 102 0
3 48 78 88 108 0
2 47 77 97 117 0
3 48 78 98 123 0
2 47 77 102 117 0
3 48 78 108 123 0
1 46 81 86 91 0
4 49 84 89 94 0
4 49 84 89 109 0
1 46 81 86 116 0
4 49 84 94 104 0
1 46 81 91 111 0
4 49 84 104 109 0
1 46 81 111 116 0
1 46 86 91 106 0
4 49 89 94 124 0
2 47 87 97 107 0
3 48 88 98 113 0
2 47 87 102 107 0
3 48 88 108 113 0
1 46 86 106 116 0
4 49 89 109 124 0
4 49 94 104 124 0
1 46 91 106 111 0
2 47 97 107 117 0
3 48 98 113 123 0
2 47 102 107 117 0
4 49 104 109 124 0
1 46 106 111 116 0
3 48 108 113 123 0
3 53 58 63 68 0
3 53 58 63 78 0
3 53 58 63 113 0
2 52 57 67 72 0
2 52 57 67 77 0
3 53 58 68 98 0
2 52 57 67 107 0
3 53 58 68 108 0
2 52 57 72 97 0
2 52 57 72 102 0
2 52 57 77 97 0
3 53 58 78 98 0
2 52 57 77 102 0
3 53 58 78 108 0
2 52 57 97 107 0
3 53 58 98 113 0
2 52 57 102 107 0
3 53 58 108 113 0
4 54 64 69 74 0
4 54 64 69 89 0
3 53 63 68 93 0
3 53 63 68 103 0
4 54 64 69 104 0
4 54 64 74 84 0
4 54 64 74 124 0
3 53 63 78 93 0
3 53 63 78 103 0
4 54 64 84 89 0
4 54 64 84 104 0
4 54 64 89 124 0
3 53 63 93 113 0
3 53 63 103 113 0
4 54 64 104 124 0
4 54 69 74 79 0
2 52 67 72 87 0
2 52 67 72 117 0
4 54 69 74 119 0
2 52 67 77 87 0
4 54 69 79 89 0
4 54 69 79 104 0
2 52 67 77 117 0
2 52 67 87 107 0
4 54 69 89 119 0
3 53 68 93 98 0
3 53 68 93 108 0
3 53 68 98 103 0
3 53 68 103 108 0
4 54 69 104 119 0
2 52 67 107 117 0
4 54 74 79 84 0
4 54 74 79 124 0
4 54 74 84 119 0
2 52 72 87 97 0
2 52 72 87 102 0
2 52 72 97 117 0
2 52 72 102 117 0
4 54 74 119 124 0
4 54 79 84 89 0
4 54 79 84 104 0
2 52 77 87 97 0
2 52 77 87 102 0
4 54 79 89 124 0
3 53 78 93 98 0
3 53 78 93 108 0
3 53 78 98 103 0
2 52 77 97 117 0
3 53 78 103 108 0
2 52 77 102 117 0
4 54 79 104 124 0
4 54 84 89 119 0
4 54 84 104 119 0
2 52 87 97 107 0
2 52 87 102 107 0
4 54 89 119 124 0
3 53 93 98 113 0
3 53 93 108 113 0
3 53 98 103 113 0
2 52 97 107 117 0
3 53 103 108 113 0
2 52 102 107 117 0
4 54 104 119 124 0
1 56 61 66 71 0
3 58 63 68 88 0
1 56 61 66 96 0
1 56 61 66 121 0
3 58 63 68 123 0
1 56 61 71 91 0
1 56 61 71 116 0
3 58 63 78 88 0
3 58 63 78 123 0
3 58 63 88 113 0
1 56 61 91 96 0
1 56 61 91 121 0
1 56 61 96 116 0
3 58 63 113 123 0
1 56 61 116 121 0
2 57 67 72 82 0
1 56 66 71 86 0
1 56 66 71 111 0
2 57 67 72 112 0
2 57 67 77 82 0
2 57 67 77 112 0
2 57 67 82 107 0
1 56 66 86 96 0
3 58 68 88 98 0
3 58 68 88 108 0
1 56 66 86 121 0
1 56 66 96 111 0
3 58 68 98 123 0
2 57 67 107 112 0
3 58 68 108 123 0
1 56 66 111 121 0
2 57 72 82 97 0
2 57 72 82 102 0
1 56 71 86 91 0
1 56 71 86 116 0
1 56 71 91 111 0
2 57 72 97 112 0
2 57 72 102 112 0
1 56 71 111 116 0
2 57 77 82 97 0
2 57 77 82 102 0
3 58 78 88 98 0
3 58 78 88 108 0
2 57 77 97 112 0
3 58 78 98 123 0
2 57 77 102 112 0
3 58 78 108 123 0
2 57 82 97 107 0
2 57 82 102 107 0
1 56 86 91 96 0
1 56 86 91 121 0
3 58 88 98 113 0
1 56 86 96 116 0
3 58 88 108 113 0
1 56 86 116 121 0
1 56 91 96 111 0
1 56 91 111 121 0
2 57 97 107 112 0
1 56 96 111 116 0
3 58 98 113 123 0
2 57 102 107 112 0
3 58 108 113 123 0
1 56 111 116 121 0
1 61 66 71 81 0
4 64 69 74 94 0
1 61 66 71 106 0
4 64 69 74 109 0
1 61 66 81 96 0
1 61 66 81 121 0
3 63 68 88 93 0
4 64 69 89 94 0
3 63 68 88 103 0
4 64 69 89 109 0
4 64 69 94 104 0
3 63 68 93 123 0
1 61 66 96 106 0
4 64 69 104 109 0
3 63 68 103 123 0
1 61 66 106 121 0
1 61 71 81 91 0
4 64 74 84 94 0
4 64 74 84 109 0
1 61 71 81 116 0
1 61 71 91 106 0
4 64 74 94 124 0
1 61 71 106 116 0
4 64 74 109 124 0
3 63 78 88 93 0
3 63 78 88 103 0
3 63 78 93 123 0
3 63 78 103 123 0
4 64 84 89 94 0
4 64 84 89 109 0
1 61 81 91 96 0
4 64 84 94 104 0
1 61 81 91 121 0
1 61 81 96 116 0
4 64 84 104 109 0
1 61 81 116 121 0
3 63 88 93 113 0
4 64 89 94 124 0
3 63 88 103 113 0
4 64 89 109 124 0
1 61 91 96 106 0
4 64 94 104 124 0
1 61 91 106 121 0
3 63 93 113 123 0
1 61 96 106 116 0
4 64 104 109 124 0
3 63 103 113 123 0
1 61 106 116 121 0
4 69 74 79 94 0
4 69 74 79 109 0
1 66 71 81 86 0
2 67 72 82 87 0
1 66 71 81 111 0
2 67 72 82 117 0
1 66 71 86 106 0
2 67 72 87 112 0
4 69 74 94 119 0
1 66 71 106 111 0
4 69 74 109 119 0
2 67 72 112 117 0
2 67 77 82 87 0
2 67 77 82 117 0
4 69 79 89 94 0
4 69 79 89 109 0
2 67 77 87 112 0
4 69 79 94 104 0
4 69 79 104 109 0
2 67 77 112 117 0
1 66 81 86 96 0
2 67 82 87 107 0
1 66 81 86 121 0
1 66 81 96 111 0
2 67 82 107 117 0
1 66 81 111 121 0
3 68 88 93 98 0
3 68 88 93 108 0
4 69 89 94 119 0
3 68 88 98 103 0
1 66 86 96 106 0
3 68 88 103 108 0
2 67 87 107 112 0
4 69 89 109 119 0
1 66 86 106 121 0
3 68 93 98 123 0
4 69 94 104 119 0
3 68 93 108 123 0
3 68 98 103 123 0
1 66 96 106 111 0
4 69 104 109 119 0
3 68 103 108 123 0
2 67 107 112 117 0
1 66 106 111 121 0
4 74 79 84 94 0
4 74 79 84 109 0
4 74 79 94 124 0
4 74 79 109 124 0
1 71 81 86 91 0
2 72 82 87 97 0
2 72 82 87 102 0
1 71 81 86 116 0
1 71 81 91 111 0
4 74 84 94 119 0
2 72 82 97 117 0
2 72 82 102 117 0
4 74 84 109 119 0
1 71 81 111 116 0
1 71 86 91 106 0
2 72 87 97 112 0
2 72 87 102 112 0
1 71 86 106 116 0
1 71 91 106 111 0
4 74 94 119 124 0
2 72 97 112 117 0
2 72 102 112 117 0
1 71 106 111 116 0
4 74 109 119 124 0
4 79 84 89 94 0
2 77 82 87 97 0
2 77 82 87 102 0
4 79 84 89 109 0
4 79 84 94 104 0
2 77 82 97 117 0
4 79 84 104 109 0
2 77 82 102 117 0
3 78 88 93 98 0
3 78 88 93 108 0
4 79 89 94 124 0
3 78 88 98 103 0
2 77 87 97 112 0
3 78 88 103 108 0
2 77 87 102 112 0
4 79 89 109 124 0
3 78 93 98 123 0
4 79 94 104 124 0
3 78 93 108 123 0
3 78 98 103 123 0
2 77 97 112 117 0
3 78 103 108 123 0
4 79 104 109 124 0
2 77 102 112 117 0
1 81 86 91 96 0
4 84 89 94 119 0
1 81 86 91 121 0
2 82 87 97 107 0
1 81 86 96 116 0
2 82 87 102 107 0
4 84 89 109 119 0
1 81 86 116 121 0
1 81 91 96 111 0
4 84 94 104 119 0
1 81 91 111 121 0
2 82 97 107 117 0
1 81 96 111 116 0
2 82 102 107 117 0
4 84 104 109 119 0
1 81 111 116 121 0
1 86 91 96 106 0
3 88 93 98 113 0
3 88 93 108 113 0
1 86 91 106 121 0
4 89 94 119 124 0
3 88 98 103 113 0
2 87 97 107 112 0
1 86 96 106 116 0
2 87 102 107 112 0
3 88 103 108 113 0
1 86 106 116 121 0
4 89 109 119 124 0
1 91 96 106 111 0
3 93 98 113 123 0
4 94 104 119 124 0
1 91 106 111 121 0
3 93 108 113 123 0
3 98 103 113 123 0
1 96 106 111 116 0
2 97 107 112 117 0
2 102 107 112 117 0
3 103 108 113 123 0
4 104 109 119 124 0
1 106 111 116 121 0
6 11 16 21 26 0
7 12 17 22 32 0
8 13 18 23 38 0
9 14 19 24 44 0
6 11 16 21 51 0
9 14 19 24 59 0
7 12 17 22 62 0
8 13 18 23 73 0
6 11 16 21 76 0
8 13 18 23 83 0
7 12 17 22 92 0
9 14 19 24 99 0
6 11 16 21 101 0
9 14 19 24 114 0
8 13 18 23 118 0
7 12 17 22 122 0
7 12 17 27 32 0
6 11 16 26 46 0
7 12 17 27 62 0
6 11 16 26 71 0
7 12 17 27 92 0
6 11 16 26 96 0
6 11 16 26 121 0
7 12 17 27 122 0
8 13 18 33 38 0
7 12 17 32 57 0
8 13 18 33 73 0
8 13 18 33 83 0
7 12 17 32 87 0
7 12 17 32 117 0
8 13 18 33 118 0
9 14 19 39 44 0
9 14 19 39 59 0
8 13 18 38 68 0
8 13 18 38 78 0
9 14 19 39 99 0
8 13 18 38 113 0
9 14 19 39 114 0
9 14 19 44 54 0
9 14 19 44 94 0
9 14 19 44 109 0
6 11 16 46 51 0
6 11 16 46 76 0
6 11 16 46 101 0
9 14 19 54 59 0
6 11 16 51 71 0
6 11 16 51 96 0
9 14 19 54 99 0
9 14 19 54 114 0
6 11 16 51 121 0
7 12 17 57 62 0
7 12 17 57 92 0
9 14 19 59 94 0
9 14 19 59 109 0
7 12 17 57 122 0
7 12 17 62 87 0
7 12 17 62 117 0
8 13 18 68 73 0
8 13 18 68 83 0
8 13 18 68 118 0
6 11 16 71 76 0
8 13 18 73 78 0
6 11 16 71 101 0
8 13 18 73 113 0
8 13 18 78 83 0
6 11 16 76 96 0
8 13 18 78 118 0
6 11 16 76 121 0
8 13 18 83 113 0
7 12 17 87 92 0
7 12 17 87 122 0
9 14 19 94 99 0
9 14 19 94 114 0
7 12 17 92 117 0
6 11 16 96 101 0
9 14 19 99 109 0
6 11 16 101 121 0
9 14 19 109 114 0
8 13 18 113 118 0
7 12 17 117 122 0
8 13 23 28 38 0
6 11 21 26 41 0
6 11 21 26 66 0
8 13 23 28 73 0
8 13 23 28 83 0
6 11 21 26 91 0
6 11 21 26 116 0
8 13 23 28 118 0
9 14 24 34 44 0
7 12 22 32 47 0
7 12 22 32 52 0
9 14 24 34 59 0
7 12 22 32 82 0
9 14 24 34 99 0
7 12 22 32 112 0
9 14 24 34 114 0
8 13 23 38 63 0
8 13 23 38 98 0
8 13 23 38 108 0
6 11 21 41 51 0
9 14 24 44 74 0
6 11 21 41 76 0
9 14 24 44 89 0
6 11 21 41 101 0
9 14 24 44 104 0
7 12 22 47 62 0
7 12 22 47 92 0
7 12 22 47 122 0
7 12 22 52 62 0
6 11 21 51 66 0
6 11 21 51 91 0
7 12 22 52 92 0
6 11 21 51 116 0
7 12 22 52 122 0
9 14 24 59 74 0
9 14 24 59 89 0
9 14 24 59 104 0
8 13 23 63 73 0
7 12 22 62 82 0
8 13 23 63 83 0
7 12 22 62 112 0
8 13 23 63 118 0
6 11 21 66 76 0
6 11 21 66 101 0
8 13 23 73 98 0
9 14 24 74 99 0
8 13 23 73 108 0
9 14 24 74 114 0
6 11 21 76 91 0
6 11 21 76 116 0
7 12 22 82 92 0
8 13 23 83 98 0
8 13 23 83 108 0
7 12 22 82 122 0
9 14 24 89 99 0
9 14 24 89 114 0
6 11 21 91 101 0
7 12 22 92 112 0
9 14 24 99 104 0
8 13 23 98 118 0
9 14 24 104 114 0
6 11 21 101 116 0
8 13 23 108 118 0
7 12 22 112 122 0
8 13 28 33 38 0
7 12 27 32 47 0
7 12 27 32 52 0
8 13 28 33 73 0
7 12 27 32 82 0
8 13 28 33 83 0
7 12 27 32 112 0
8 13 28 33 118 0
8 13 28 38 68 0
8 13 28 38 78 0
8 13 28 38 113 0
6 11 26 41 46 0
6 11 26 41 71 0
6 11 26 41 96 0
6 11 26 41 121 0
7 12 27 47 62 0
6 11 26 46 66 0
6 11 26 46 91 0
7 12 27 47 92 0
6 11 26 46 116 0
7 12 27 47 122 0
7 12 27 52 62 0
7 12 27 52 92 0
7 12 27 52 122 0
7 12 27 62 82 0
7 12 27 62 112 0
6 11 26 66 71 0
8 13 28 68 73 0
8 13 28 68 83 0
6 11 26 66 96 0
8 13 28 68 118 0
6 11 26 66 121 0
8 13 28 73 78 0
6 11 26 71 91 0
8 13 28 73 113 0
6 11 26 71 116 0
8 13 28 78 83 0
8 13 28 78 118 0
7 12 27 82 92 0
8 13 28 83 113 0
7 12 27 82 122 0
6 11 26 91 96 0
7 12 27 92 112 0
6 11 26 91 121 0
6 11 26 96 116 0
8 13 28 113 118 0
7 12 27 112 122 0
6 11 26 116 121 0
9 14 34 39 44 0
9 14 34 39 59 0
8 13 33 38 63 0
8 13 33 38 98 0
9 14 34 39 99 0
8 13 33 38 108 0
9 14 34 39 114 0
9 14 34 44 54 0
9 14 34 44 94 0
9 14 34 44 109 0
7 12 32 47 57 0
7 12 32 47 87 0
7 12 32 47 117 0
7 12 32 52 57 0
9 14 34 54 59 0
7 12 32 52 87 0
9 14 34 54 99 0
9 14 34 54 114 0
7 12 32 52 117 0
7 12 32 57 82 0
9 14 34 59 94 0
9 14 34 59 109 0
7 12 32 57 112 0
8 13 33 63 73 0
8 13 33 63 83 0
8 13 33 63 118 0
8 13 33 73 98 0
8 13 33 73 108 0
7 12 32 82 87 0
8 13 33 83 98 0
8 13 33 83 108 0
7 12 32 82 117 0
7 12 32 87 112 0
9 14 34 94 99 0
9 14 34 94 114 0
9 14 34 99 109 0
8 13 33 98 118 0
9 14 34 109 114 0
8 13 33 108 118 0
7 12 32 112 117 0
9 14 39 44 74 0
9 14 39 44 89 0
9 14 39 44 104 0
9 14 39 59 74 0
9 14 39 59 89 0
9 14 39 59 104 0
8 13 38 63 68 0
8 13 38 63 78 0
8 13 38 63 113 0
8 13 38 68 98 0
8 13 38 68 108 0
9 14 39 74 99 0
9 14 39 74 114 0
8 13 38 78 98 0
8 13 38 78 108 0
9 14 39 89 99 0
9 14 39 89 114 0
9 14 39 99 104 0
8 13 38 98 113 0
9 14 39 104 114 0
8 13 38 108 113 0
6 11 41 46 51 0
6 11 41 46 76 0
6 11 41 46 101 0
6 11 41 51 71 0
9 14 44 54 74 0
9 14 44 54 89 0
6 11 41 51 96 0
9 14 44 54 104 0
6 11 41 51 121 0
6 11 41 71 76 0
9 14 44 74 94 0
6 11 41 71 101 0
9 14 44 74 109 0
6 11 41 76 96 0
6 11 41 76 121 0
9 14 44 89 94 0
9 14 44 89 109 0
9 14 44 94 104 0
6 11 41 96 101 0
9 14 44 104 109 0
6 11 41 101 121 0
6 11 46 51 66 0
6 11 46 51 91 0
6 11 46 51 116 0
7 12 47 57 62 0
7 12 47 57 92 0
7 12 47 57 122 0
7 12 47 62 87 0
7 12 47 62 117 0
6 11 46 66 76 0
6 11 46 66 101 0
6 11 46 76 91 0
6 11 46 76 116 0
7 12 47 87 92 0
7 12 47 87 122 0
6 11 46 91 101 0
7 12 47 92 117 0
6 11 46 101 116 0
7 12 47 117 122 0
7 12 52 57 62 0
9 14 54 59 74 0
9 14 54 59 89 0
7 12 52 57 92 0
9 14 54 59 104 0
7 12 52 57 122 0
7 12 52 62 87 0
7 12 52 62 117 0
6 11 51 66 71 0
6 11 51 66 96 0
6 11 51 66 121 0
6 11 51 71 91 0
9 14 54 74 99 0
9 14 54 74 114 0
6 11 51 71 116 0
7 12 52 87 92 0
9 14 54 89 99 0
9 14 54 89 114 0
7 12 52 87 122 0
6 11 51 91 96 0
7 12 52 92 117 0
6 11 51 91 121 0
9 14 54 99 104 0
6 11 51 96 116 0
9 14 54 104 114 0
6 11 51 116 121 0
7 12 52 117 122 0
7 12 57 62 82 0
7 12 57 62 112 0
9 14 59 74 94 0
9 14 59 74 109 0
7 12 57 82 92 0
7 12 57 82 122 0
9 14 59 89 94 0
9 14 59 89 109 0
9 14 59 94 104 0
7 12 57 92 112 0
9 14 59 104 109 0
7 12 57 112 122 0
8 13 63 68 73 0
8 13 63 68 83 0
8 13 63 68 118 0
8 13 63 73 78 0
8 13 63 73 113 0
8 13 63 78 83 0
8 13 63 78 118 0
7 12 62 82 87 0
8 13 63 83 113 0
7 12 62 82 117 0
7 12 62 87 112 0
7 12 62 112 117 0
8 13 63 113 118 0
6 11 66 71 76 0
8 13 68 73 98 0
6 11 66 71 101 0
8 13 68 73 108 0
6 11 66 76 96 0
6 11 66 76 121 0
8 13 68 83 98 0
8 13 68 83 108 0
6 11 66 96 101 0
8 13 68 98 118 0
6 11 66 101 121 0
8 13 68 108 118 0
6 11 71 76 91 0
8 13 73 78 98 0
8 13 73 78 108 0
6 11 71 76 116 0
9 14 74 94 99 0
6 11 71 91 101 0
9 14 74 94 114 0
9 14 74 99 109 0
8 13 73 98 113 0
6 11 71 101 116 0
8 13 73 108 113 0
9 14 74 109 114 0
8 13 78 83 98 0
8 13 78 83 108 0
6 11 76 91 96 0
6 11 76 91 121 0
6 11 76 96 116 0
8 13 78 98 118 0
8 13 78 108 118 0
6 11 76 116 121 0
7 12 82 87 92 0
7 12 82 87 122 0
7 12 82 92 117 0
8 13 83 98 113 0
8 13 83 108 113 0
7 12 82 117 122 0
9 14 89 94 99 0
7 12 87 92 112 0
9 14 89 94 114 0
9 14 89 99 109 0
9 14 89 109 114 0
7 12 87 112 122 0
6 11 91 96 101 0
9 14 94 99 104 0
9 14 94 104 114 0
6 11 91 101 121 0
7 12 92 112 117 0
9 14 99 104 109 0
6 11 96 101 116 0
8 13 98 113 118 0
9 14 104 109 114 0
6 11 101 116 121 0
8 13 108 113 118 0
7 12 112 117 122 0
6 16 21 26 36 0
9 19 24 29 44 0
9 19 24 29 59 0
6 16 21 26 61 0
6 16 21 26 86 0
9 19 24 29 99 0
6 16 21 26 111 0
9 19 24 29 114 0
7 17 22 32 42 0
7 17 22 32 72 0
7 17 22 32 77 0
7 17 22 32 107 0
8 18 23 38 48 0
6 16 21 36 51 0
8 18 23 38 58 0
6 16 21 36 76 0
8 18 23 38 93 0
6 16 21 36 101 0
8 18 23 38 103 0
7 17 22 42 62 0
9 19 24 44 69 0
9 19 24 44 84 0
7 17 22 42 92 0
7 17 22 42 122 0
9 19 24 44 124 0
8 18 23 48 73 0
8 18 23 48 83 0
8 18 23 48 118 0
6 16 21 51 61 0
6 16 21 51 86 0
6 16 21 51 111 0
9 19 24 59 69 0
8 18 23 58 73 0
8 18 23 58 83 0
9 19 24 59 84 0
8 18 23 58 118 0
9 19 24 59 124 0
7 17 22 62 72 0
6 16 21 61 76 0
7 17 22 62 77 0
6 16 21 61 101 0
7 17 22 62 107 0
9 19 24 69 99 0
9 19 24 69 114 0
7 17 22 72 92 0
8 18 23 73 93 0
8 18 23 73 103 0
7 17 22 72 122 0
6 16 21 76 86 0
7 17 22 77 92 0
6 16 21 76 111 0
7 17 22 77 122 0
8 18 23 83 93 0
9 19 24 84 99 0
8 18 23 83 103 0
9 19 24 84 114 0
6 16 21 86 101 0
7 17 22 92 107 0
8 18 23 93 118 0
9 19 24 99 124 0
6 16 21 101 111 0
8 18 23 103 118 0
7 17 22 107 122 0
9 19 24 114 124 0
7 17 27 32 42 0
7 17 27 32 72 0
7 17 27 32 77 0
7 17 27 32 107 0
9 19 29 39 44 0
6 16 26 36 46 0
9 19 29 39 59 0
6 16 26 36 71 0
6 16 26 36 96 0
9 19 29 39 99 0
9 19 29 39 114 0
6 16 26 36 121 0
9 19 29 44 54 0
7 17 27 42 62 0
7 17 27 42 92 0
9 19 29 44 94 0
9 19 29 44 109 0
7 17 27 42 122 0
6 16 26 46 61 0
6 16 26 46 86 0
6 16 26 46 111 0
9 19 29 54 59 0
9 19 29 54 99 0
9 19 29 54 114 0
9 19 29 59 94 0
9 19 29 59 109 0
6 16 26 61 71 0
7 17 27 62 72 0
7 17 27 62 77 0
6 16 26 61 96 0
7 17 27 62 107 0
6 16 26 61 121 0
6 16 26 71 86 0
7 17 27 72 92 0
6 16 26 71 111 0
7 17 27 72 122 0
7 17 27 77 92 0
7 17 27 77 122 0
6 16 26 86 96 0
6 16 26 86 121 0
9 19 29 94 99 0
7 17 27 92 107 0
9 19 29 94 114 0
9 19 29 99 109 0
6 16 26 96 111 0
9 19 29 109 114 0
7 17 27 107 122 0
6 16 26 111 121 0
8 18 33 38 48 0
8 18 33 38 58 0
8 18 33 38 93 0
8 18 33 38 103 0
7 17 32 42 57 0
7 17 32 42 87 0
7 17 32 42 117 0
8 18 33 48 73 0
8 18 33 48 83 0
8 18 33 48 118 0
7 17 32 57 72 0
8 18 33 58 73 0
7 17 32 57 77 0
8 18 33 58 83 0
7 17 32 57 107 0
8 18 33 58 118 0
7 17 32 72 87 0
8 18 33 73 93 0
8 18 33 73 103 0
7 17 32 72 117 0
7 17 32 77 87 0
7 17 32 77 117 0
8 18 33 83 93 0
8 18 33 83 103 0
7 17 32 87 107 0
8 18 33 93 118 0
8 18 33 103 118 0
7 17 32 107 117 0
9 19 39 44 69 0
9 19 39 44 84 0
9 19 39 44 124 0
6 16 36 46 51 0
8 18 38 48 68 0
6 16 36 46 76 0
8 18 38 48 78 0
6 16 36 46 101 0
8 18 38 48 113 0
6 16 36 51 71 0
6 16 36 51 96 0
6 16 36 51 121 0
8 18 38 58 68 0
9 19 39 59 69 0
8 18 38 58 78 0
9 19 39 59 84 0
8 18 38 58 113 0
9 19 39 59 124 0
8 18 38 68 93 0
9 19 39 69 99 0
8 18 38 68 103 0
9 19 39 69 114 0
6 16 36 71 76 0
6 16 36 71 101 0
8 18 38 78 93 0
6 16 36 76 96 0
8 18 38 78 103 0
6 16 36 76 121 0
9 19 39 84 99 0
9 19 39 84 114 0
8 18 38 93 113 0
6 16 36 96 101 0
9 19 39 99 124 0
8 18 38 103 113 0
6 16 36 101 121 0
9 19 39 114 124 0
9 19 44 54 69 0
9 19 44 54 84 0
9 19 44 54 124 0
7 17 42 57 62 0
7 17 42 57 92 0
7 17 42 57 122 0
7 17 42 62 87 0
7 17 42 62 117 0
9 19 44 69 94 0
9 19 44 69 109 0
9 19 44 84 94 0
9 19 44 84 109 0
7 17 42 87 92 0
7 17 42 87 122 0
7 17 42 92 117 0
9 19 44 94 124 0
9 19 44 109 124 0
7 17 42 117 122 0
6 16 46 51 61 0
6 16 46 51 86 0
6 16 46 51 111 0
6 16 46 61 76 0
6 16 46 61 101 0
8 18 48 68 73 0
8 18 48 68 83 0
8 18 48 68 118 0
8 18 48 73 78 0
8 18 48 73 113 0
8 18 48 78 83 0
6 16 46 76 86 0
6 16 46 76 111 0
8 18 48 78 118 0
8 18 48 83 113 0
6 16 46 86 101 0
6 16 46 101 111 0
8 18 48 113 118 0
9 19 54 59 69 0
9 19 54 59 84 0
9 19 54 59 124 0
6 16 51 61 71 0
6 16 51 61 96 0
6 16 51 61 121 0
9 19 54 69 99 0
9 19 54 69 114 0
6 16 51 71 86 0
6 16 51 71 111 0
9 19 54 84 99 0
9 19 54 84 114 0
6 16 51 86 96 0
6 16 51 86 121 0
6 16 51 96 111 0
9 19 54 99 124 0
6 16 51 111 121 0
9 19 54 114 124 0
7 17 57 62 72 0
7 17 57 62 77 0
7 17 57 62 107 0
8 18 58 68 73 0
8 18 58 68 83 0
9 19 59 69 94 0
9 19 59 69 109 0
8 18 58 68 118 0
8 18 58 73 78 0
7 17 57 72 92 0
8 18 58 73 113 0
7 17 57 72 122 0
8 18 58 78 83 0
7 17 57 77 92 0
8 18 58 78 118 0
7 17 57 77 122 0
9 19 59 84 94 0
9 19 59 84 109 0
8 18 58 83 113 0
7 17 57 92 107 0
9 19 59 94 124 0
7 17 57 107 122 0
9 19 59 109 124 0
8 18 58 113 118 0
6 16 61 71 76 0
7 17 62 72 87 0
6 16 61 71 101 0
7 17 62 72 117 0
7 17 62 77 87 0
6 16 61 76 96 0
7 17 62 77 117 0
6 16 61 76 121 0
7 17 62 87 107 0
6 16 61 96 101 0
6 16 61 101 121 0
7 17 62 107 117 0
8 18 68 73 93 0
8 18 68 73 103 0
8 18 68 83 93 0
8 18 68 83 103 0
9 19 69 94 99 0
9 19 69 94 114 0
8 18 68 93 118 0
9 19 69 99 109 0
8 18 68 103 118 0
9 19 69 109 114 0
6 16 71 76 86 0
8 18 73 78 93 0
8 18 73 78 103 0
6 16 71 76 111 0
7 17 72 87 92 0
6 16 71 86 101 0
7 17 72 87 122 0
8 18 73 93 113 0
7 17 72 92 117 0
6 16 71 101 111 0
8 18 73 103 113 0
7 17 72 117 122 0
8 18 78 83 93 0
8 18 78 83 103 0
7 17 77 87 92 0
6 16 76 86 96 0
6 16 76 86 121 0
7 17 77 87 122 0
7 17 77 92 117 0
8 18 78 93 118 0
6 16 76 96 111 0
8 18 78 103 118 0
6 16 76 111 121 0
7 17 77 117 122 0
9 19 84 94 99 0
8 18 83 93 113 0
9 19 84 94 114 0
9 19 84 99 109 0
8 18 83 103 113 0
9 19 84 109 114 0
7 17 87 92 107 0
6 16 86 96 101 0
6 16 86 101 121 0
7 17 87 107 122 0
9 19 94 99 124 0
7 17 92 107 117 0
8 18 93 113 118 0
9 19 94 114 124 0
6 16 96 101 111 0
9 19 99 109 124 0
8 18 103 113 118 0
6 16 101 111 121 0
9 19 109 114 124 0
7 17 107 117 122 0
9 24 29 34 44 0
9 24 29 34 59 0
9 24 29 34 99 0
9 24 29 34 114 0
6 21 26 36 41 0
8 23 28 38 48 0
8 23 28 38 58 0
6 21 26 36 66 0
6 21 26 36 91 0
8 23 28 38 93 0
8 23 28 38 103 0
6 21 26 36 116 0
6 21 26 41 61 0
9 24 29 44 74 0
6 21 26 41 86 0
9 24 29 44 89 0
9 24 29 44 104 0
6 21 26 41 111 0
8 23 28 48 73 0
8 23 28 48 83 0
8 23 28 48 118 0
8 23 28 58 73 0
9 24 29 59 74 0
8 23 28 58 83 0
9 24 29 59 89 0
9 24 29 59 104 0
8 23 28 58 118 0
6 21 26 61 66 0
6 21 26 61 91 0
6 21 26 61 116 0
6 21 26 66 86 0
6 21 26 66 111 0
8 23 28 73 93 0
9 24 29 74 99 0
8 23 28 73 103 0
9 24 29 74 114 0
8 23 28 83 93 0
8 23 28 83 103 0
6 21 26 86 91 0
9 24 29 89 99 0
9 24 29 89 114 0
6 21 26 86 116 0
6 21 26 91 111 0
8 23 28 93 118 0
9 24 29 99 104 0
9 24 29 104 114 0
8 23 28 103 118 0
6 21 26 111 116 0
7 22 32 42 47 0
7 22 32 42 52 0
9 24 34 44 69 0
7 22 32 42 82 0
9 24 34 44 84 0
7 22 32 42 112 0
9 24 34 44 124 0
7 22 32 47 72 0
7 22 32 47 77 0
7 22 32 47 107 0
7 22 32 52 72 0
7 22 32 52 77 0
7 22 32 52 107 0
9 24 34 59 69 0
9 24 34 59 84 0
9 24 34 59 124 0
9 24 34 69 99 0
9 24 34 69 114 0
7 22 32 72 82 0
7 22 32 72 112 0
7 22 32 77 82 0
7 22 32 77 112 0
9 24 34 84 99 0
7 22 32 82 107 0
9 24 34 84 114 0
9 24 34 99 124 0
7 22 32 107 112 0
9 24 34 114 124 0
6 21 36 41 51 0
6 21 36 41 76 0
6 21 36 41 101 0
8 23 38 48 63 0
8 23 38 48 98 0
8 23 38 48 108 0
6 21 36 51 66 0
6 21 36 51 91 0
6 21 36 51 116 0
8 23 38 58 63 0
8 23 38 58 98 0
8 23 38 58 108 0
8 23 38 63 93 0
8 23 38 63 103 0
6 21 36 66 76 0
6 21 36 66 101 0
6 21 36 76 91 0
6 21 36 76 116 0
8 23 38 93 98 0
6 21 36 91 101 0
8 23 38 93 108 0
8 23 38 98 103 0
8 23 38 103 108 0
6 21 36 101 116 0
7 22 42 47 62 0
7 22 42 47 92 0
7 22 42 47 122 0
6 21 41 51 61 0
7 22 42 52 62 0
6 21 41 51 86 0
7 22 42 52 92 0
6 21 41 51 111 0
7 22 42 52 122 0
6 21 41 61 76 0
7 22 42 62 82 0
6 21 41 61 101 0
7 22 42 62 112 0
9 24 44 69 74 0
9 24 44 69 89 0
9 24 44 69 104 0
9 24 44 74 84 0
9 24 44 74 124 0
6 21 41 76 86 0
6 21 41 76 111 0
9 24 44 84 89 0
7 22 42 82 92 0
9 24 44 84 104 0
7 22 42 82 122 0
6 21 41 86 101 0
9 24 44 89 124 0
7 22 42 92 112 0
6 21 41 101 111 0
9 24 44 104 124 0
7 22 42 112 122 0
7 22 47 62 72 0
8 23 48 63 73 0
7 22 47 62 77 0
8 23 48 63 83 0
7 22 47 62 107 0
8 23 48 63 118 0
7 22 47 72 92 0
8 23 48 73 98 0
8 23 48 73 108 0
7 22 47 72 122 0
7 22 47 77 92 0
7 22 47 77 122 0
8 23 48 83 98 0
8 23 48 83 108 0
7 22 47 92 107 0
8 23 48 98 118 0
8 23 48 108 118 0
7 22 47 107 122 0
6 21 51 61 66 0
7 22 52 62 72 0
7 22 52 62 77 0
6 21 51 61 91 0
7 22 52 62 107 0
6 21 51 61 116 0
6 21 51 66 86 0
6 21 51 66 111 0
7 22 52 72 92 0
7 22 52 72 122 0
7 22 52 77 92 0
7 22 52 77 122 0
6 21 51 86 91 0
6 21 51 86 116 0
7 22 52 92 107 0
6 21 51 91 111 0
7 22 52 107 122 0
6 21 51 111 116 0
8 23 58 63 73 0
8 23 58 63 83 0
8 23 58 63 118 0
9 24 59 69 74 0
9 24 59 69 89 0
9 24 59 69 104 0
9 24 59 74 84 0
8 23 58 73 98 0
8 23 58 73 108 0
9 24 59 74 124 0
9 24 59 84 89 0
8 23 58 83 98 0
9 24 59 84 104 0
8 23 58 83 108 0
9 24 59 89 124 0
8 23 58 98 118 0
9 24 59 104 124 0
8 23 58 108 118 0
6 21 61 66 76 0
6 21 61 66 101 0
7 22 62 72 82 0
8 23 63 73 93 0
8 23 63 73 103 0
7 22 62 72 112 0
7 22 62 77 82 0
6 21 61 76 91 0
7 22 62 77 112 0
6 21 61 76 116 0
8 23 63 83 93 0
8 23 63 83 103 0
7 22 62 82 107 0
6 21 61 91 101 0
8 23 63 93 118 0
6 21 61 101 116 0
8 23 63 103 118 0
7 22 62 107 112 0
9 24 69 74 99 0
9 24 69 74 114 0
6 21 66 76 86 0
6 21 66 76 111 0
9 24 69 89 99 0
6 21 66 86 101 0
9 24 69 89 114 0
9 24 69 99 104 0
6 21 66 101 111 0
9 24 69 104 114 0
7 22 72 82 92 0
9 24 74 84 99 0
9 24 74 84 114 0
7 22 72 82 122 0
8 23 73 93 98 0
8 23 73 93 108 0
7 22 72 92 112 0
8 23 73 98 103 0
9 24 74 99 124 0
8 23 73 103 108 0
7 22 72 112 122 0
9 24 74 114 124 0
7 22 77 82 92 0
7 22 77 82 122 0
6 21 76 86 91 0
6 21 76 86 116 0
6 21 76 91 111 0
7 22 77 92 112 0
6 21 76 111 116 0
7 22 77 112 122 0
9 24 84 89 99 0
9 24 84 89 114 0
8 23 83 93 98 0
7 22 82 92 107 0
8 23 83 93 108 0
8 23 83 98 103 0
9 24 84 99 104 0
8 23 83 103 108 0
9 24 84 104 114 0
7 22 82 107 122 0
6 21 86 91 101 0
9 24 89 99 124 0
6 21 86 101 116 0
9 24 89 114 124 0
8 23 93 98 118 0
6 21 91 101 111 0
7 22 92 107 112 0
8 23 93 108 118 0
8 23 98 103 118 0
9 24 99 104 124 0
8 23 103 108 118 0
6 21 101 111 116 0
9 24 104 114 124 0
7 22 107 112 122 0
9 29 34 39 44 0
8 28 33 38 48 0
8 28 33 38 58 0
9 29 34 39 59 0
8 28 33 38 93 0
9 29 34 39 99 0
8 28 33 38 103 0
9 29 34 39 114 0
7 27 32 42 47 0
7 27 32 42 52 0
9 29 34 44 54 0
7 27 32 42 82 0
9 29 34 44 94 0
9 29 34 44 109 0
7 27 32 42 112 0
7 27 32 47 72 0
8 28 33 48 73 0
7 27 32 47 77 0
8 28 33 48 83 0
7 27 32 47 107 0
8 28 33 48 118 0
9 29 34 54 59 0
7 27 32 52 72 0
7 27 32 52 77 0
9 29 34 54 99 0
7 27 32 52 107 0
9 29 34 54 114 0
8 28 33 58 73 0
8 28 33 58 83 0
9 29 34 59 94 0
9 29 34 59 109 0
8 28 33 58 118 0
7 27 32 72 82 0
8 28 33 73 93 0
8 28 33 73 103 0
7 27 32 72 112 0
7 27 32 77 82 0
7 27 32 77 112 0
8 28 33 83 93 0
8 28 33 83 103 0
7 27 32 82 107 0
9 29 34 94 99 0
9 29 34 94 114 0
8 28 33 93 118 0
9 29 34 99 109 0
8 28 33 103 118 0
7 27 32 107 112 0
9 29 34 109 114 0
6 26 36 41 46 0
6 26 36 41 71 0
9 29 39 44 74 0
9 29 39 44 89 0
6 26 36 41 96 0
9 29 39 44 104 0
6 26 36 41 121 0
6 26 36 46 66 0
8 28 38 48 68 0
8 28 38 48 78 0
6 26 36 46 91 0
8 28 38 48 113 0
6 26 36 46 116 0
8 28 38 58 68 0
9 29 39 59 74 0
8 28 38 58 78 0
9 29 39 59 89 0
9 29 39 59 104 0
8 28 38 58 113 0
6 26 36 66 71 0
8 28 38 68 93 0
6 26 36 66 96 0
8 28 38 68 103 0
6 26 36 66 121 0
6 26 36 71 91 0
9 29 39 74 99 0
9 29 39 74 114 0
6 26 36 71 116 0
8 28 38 78 93 0
8 28 38 78 103 0
9 29 39 89 99 0
9 29 39 89 114 0
6 26 36 91 96 0
8 28 38 93 113 0
6 26 36 91 121 0
9 29 39 99 104 0
6 26 36 96 116 0
8 28 38 103 113 0
9 29 39 104 114 0
6 26 36 116 121 0
6 26 41 46 61 0
7 27 42 47 62 0
6 26 41 46 86 0
7 27 42 47 92 0
6 26 41 46 111 0
7 27 42 47 122 0
7 27 42 52 62 0
9 29 44 54 74 0
9 29 44 54 89 0
7 27 42 52 92 0
9 29 44 54 104 0
7 27 42 52 122 0
6 26 41 61 71 0
7 27 42 62 82 0
6 26 41 61 96 0
7 27 42 62 112 0
6 26 41 61 121 0
6 26 41 71 86 0
9 29 44 74 94 0
9 29 44 74 109 0
6 26 41 71 111 0
7 27 42 82 92 0
7 27 42 82 122 0
9 29 44 89 94 0
6 26 41 86 96 0
9 29 44 89 109 0
6 26 41 86 121 0
9 29 44 94 104 0
7 27 42 92 112 0
6 26 41 96 111 0
9 29 44 104 109 0
6 26 41 111 121 0
7 27 42 112 122 0
6 26 46 61 66 0
7 27 47 62 72 0
7 27 47 62 77 0
6 26 46 61 91 0
7 27 47 62 107 0
6 26 46 61 116 0
8 28 48 68 73 0
8 28 48 68 83 0
6 26 46 66 86 0
6 26 46 66 111 0
8 28 48 68 118 0
8 28 48 73 78 0
7 27 47 72 92 0
8 28 48 73 113 0
7 27 47 72 122 0
8 28 48 78 83 0
7 27 47 77 92 0
8 28 48 78 118 0
7 27 47 77 122 0
8 28 48 83 113 0
6 26 46 86 91 0
6 26 46 86 116 0
7 27 47 92 107 0
6 26 46 91 111 0
7 27 47 107 122 0
6 26 46 111 116 0
8 28 48 113 118 0
9 29 54 59 74 0
9 29 54 59 89 0
9 29 54 59 104 0
7 27 52 62 72 0
7 27 52 62 77 0
7 27 52 62 107 0
7 27 52 72 92 0
9 29 54 74 99 0
9 29 54 74 114 0
7 27 52 72 122 0
7 27 52 77 92 0
7 27 52 77 122 0
9 29 54 89 99 0
9 29 54 89 114 0
7 27 52 92 107 0
9 29 54 99 104 0
9 29 54 104 114 0
7 27 52 107 122 0
8 28 58 68 73 0
8 28 58 68 83 0
8 28 58 68 118 0
8 28 58 73 78 0
9 29 59 74 94 0
9 29 59 74 109 0
8 28 58 73 113 0
8 28 58 78 83 0
8 28 58 78 118 0
8 28 58 83 113 0
9 29 59 89 94 0
9 29 59 89 109 0
9 29 59 94 104 0
9 29 59 104 109 0
8 28 58 113 118 0
6 26 61 66 71 0
6 26 61 66 96 0
6 26 61 66 121 0
7 27 62 72 82 0
6 26 61 71 91 0
7 27 62 72 112 0
6 26 61 71 116 0
7 27 62 77 82 0
7 27 62 77 112 0
7 27 62 82 107 0
6 26 61 91 96 0
6 26 61 91 121 0
6 26 61 96 116 0
7 27 62 107 112 0
6 26 61 116 121 0
6 26 66 71 86 0
8 28 68 73 93 0
8 28 68 73 103 0
6 26 66 71 111 0
8 28 68 83 93 0
8 28 68 83 103 0
6 26 66 86 96 0
6 26 66 86 121 0
8 28 68 93 118 0
6 26 66 96 111 0
8 28 68 103 118 0
6 26 66 111 121 0
8 28 73 78 93 0
8 28 73 78 103 0
7 27 72 82 92 0
7 27 72 82 122 0
6 26 71 86 91 0
6 26 71 86 116 0
9 29 74 94 99 0
6 26 71 91 111 0
7 27 72 92 112 0
8 28 73 93 113 0
9 29 74 94 114 0
9 29 74 99 109 0
8 28 73 103 113 0
9 29 74 109 114 0
6 26 71 111 116 0
7 27 72 112 122 0
7 27 77 82 92 0
8 28 78 83 93 0
8 28 78 83 103 0
7 27 77 82 122 0
7 27 77 92 112 0
8 28 78 93 118 0
8 28 78 103 118 0
7 27 77 112 122 0
7 27 82 92 107 0
8 28 83 93 113 0
8 28 83 103 113 0
7 27 82 107 122 0
6 26 86 91 96 0
9 29 89 94 99 0
9 29 89 94 114 0
6 26 86 91 121 0
9 29 89 99 109 0
6 26 86 96 116 0
9 29 89 109 114 0
6 26 86 116 121 0
9 29 94 99 104 0
6 26 91 96 111 0
9 29 94 104 114 0
7 27 92 107 112 0
8 28 93 113 118 0
6 26 91 111 121 0
9 29 99 104 109 0
6 26 96 111 116 0
9 29 104 109 114 0
8 28 103 113 118 0
7 27 107 112 122 0
6 26 111 116 121 0
9 34 39 44 69 0
9 34 39 44 84 0
9 34 39 44 124 0
8 33 38 48 63 0
8 33 38 48 98 0
8 33 38 48 108 0
8 33 38 58 63 0
9 34 39 59 69 0
9 34 39 59 84 0
8 33 38 58 98 0
8 33 38 58 108 0
9 34 39 59 124 0
8 33 38 63 93 0
8 33 38 63 103 0
9 34 39 69 99 0
9 34 39 69 114 0
9 34 39 84 99 0
9 34 39 84 114 0
8 33 38 93 98 0
8 33 38 93 108 0
8 33 38 98 103 0
9 34 39 99 124 0
8 33 38 103 108 0
9 34 39 114 124 0
7 32 42 47 57 0
7 32 42 47 87 0
7 32 42 47 117 0
7 32 42 52 57 0
9 34 44 54 69 0
9 34 44 54 84 0
7 32 42 52 87 0
7 32 42 52 117 0
9 34 44 54 124 0
7 32 42 57 82 0
7 32 42 57 112 0
9 34 44 69 94 0
9 34 44 69 109 0
7 32 42 82 87 0
9 34 44 84 94 0
9 34 44 84 109 0
7 32 42 82 117 0
7 32 42 87 112 0
9 34 44 94 124 0
9 34 44 109 124 0
7 32 42 112 117 0
7 32 47 57 72 0
7 32 47 57 77 0
7 32 47 57 107 0
8 33 48 63 73 0
8 33 48 63 83 0
8 33 48 63 118 0
7 32 47 72 87 0
8 33 48 73 98 0
8 33 48 73 108 0
7 32 47 72 117 0
7 32 47 77 87 0
7 32 47 77 117 0
8 33 48 83 98 0
8 33 48 83 108 0
7 32 47 87 107 0
8 33 48 98 118 0
7 32 47 107 117 0
8 33 48 108 118 0
9 34 54 59 69 0
7 32 52 57 72 0
7 32 52 57 77 0
9 34 54 59 84 0
7 32 52 57 107 0
9 34 54 59 124 0
9 34 54 69 99 0
9 34 54 69 114 0
7 32 52 72 87 0
7 32 52 72 117 0
7 32 52 77 87 0
7 32 52 77 117 0
9 34 54 84 99 0
9 34 54 84 114 0
7 32 52 87 107 0
9 34 54 99 124 0
7 32 52 107 117 0
9 34 54 114 124 0
8 33 58 63 73 0
8 33 58 63 83 0
8 33 58 63 118 0
9 34 59 69 94 0
9 34 59 69 109 0
7 32 57 72 82 0
8 33 58 73 98 0
8 33 58 73 108 0
7 32 57 72 112 0
7 32 57 77 82 0
7 32 57 77 112 0
9 34 59 84 94 0
8 33 58 83 98 0
7 32 57 82 107 0
8 33 58 83 108 0
9 34 59 84 109 0
10 35 60 85 110 0
10 35 60 90 105 0
9 34 59 94 124 0
8 33 58 98 118 0
7 32 57 107 112 0
8 33 58 108 118 0
9 34 59 109 124 0
8 33 63 73 93 0
8 33 63 73 103 0
10 35 65 80 110 0
8 33 63 83 93 0
8 33 63 83 103 0
10 35 65 90 125 0
8 33 63 93 118 0
8 33 63 103 118 0
10 35 70 80 105 0
10 35 70 85 125 0
9 34 69 94 99 0
9 34 69 94 114 0
9 34 69 99 109 0
9 34 69 109 114 0
7 32 72 82 87 0
7 32 72 82 117 0
7 32 72 87 112 0
8 33 73 93 98 0
8 33 73 93 108 0
8 33 73 98 103 0
8 33 73 103 108 0
7 32 72 112 117 0
7 32 77 82 87 0
7 32 77 82 117 0
7 32 77 87 112 0
7 32 77 112 117 0
7 32 82 87 107 0
8 33 83 93 98 0
9 34 84 94 99 0
8 33 83 93 108 0
9 34 84 94 114 0
8 33 83 98 103 0
9 34 84 99 109 0
8 33 83 103 108 0
9 34 84 109 114 0
7 32 82 107 117 0
7 32 87 107 112 0
8 33 93 98 118 0
9 34 94 99 124 0
8 33 93 108 118 0
9 34 94 114 124 0
8 33 98 103 118 0
9 34 99 109 124 0
8 33 103 108 118 0
7 32 107 112 117 0
9 34 109 114 124 0
6 36 41 46 51 0
6 36 41 46 76 0
6 36 41 46 101 0
6 36 41 51 71 0
6 36 41 51 96 0
6 36 41 51 121 0
9 39 44 69 74 0
9 39 44 69 89 0
9 39 44 69 104 0
6 36 41 71 76 0
9 39 44 74 84 0
6 36 41 71 101 0
9 39 44 74 124 0
6 36 41 76 96 0
6 36 41 76 121 0
9 39 44 84 89 0
9 39 44 84 104 0
9 39 44 89 124 0
6 36 41 96 101 0
6 36 41 101 121 0
9 39 44 104 124 0
6 36 46 51 66 0
6 36 46 51 91 0
6 36 46 51 116 0
8 38 48 63 68 0
8 38 48 63 78 0
8 38 48 63 113 0
6 36 46 66 76 0
8 38 48 68 98 0
6 36 46 66 101 0
8 38 48 68 108 0
6 36 46 76 91 0
8 38 48 78 98 0
8 38 48 78 108 0
6 36 46 76 116 0
6 36 46 91 101 0
8 38 48 98 113 0
6 36 46 101 116 0
8 38 48 108 113 0
6 36 51 66 71 0
6 36 51 66 96 0
6 36 51 66 121 0
6 36 51 71 91 0
6 36 51 71 116 0
10 40 55 85 110 0
10 40 55 90 105 0
6 36 51 91 96 0
6 36 51 91 121 0
6 36 51 96 116 0
6 36 51 116 121 0
8 38 58 63 68 0
8 38 58 63 78 0
8 38 58 63 113 0
9 39 59 69 74 0
9 39 59 69 89 0
8 38 58 68 98 0
9 39 59 69 104 0
8 38 58 68 108 0
9 39 59 74 84 0
9 39 59 74 124 0
8 38 58 78 98 0
8 38 58 78 108 0
9 39 59 84 89 0
9 39 59 84 104 0
9 39 59 89 124 0
8 38 58 98 113 0
9 39 59 104 124 0
8 38 58 108 113 0
8 38 63 68 93 0
8 38 63 68 103 0
8 38 63 78 93 0
8 38 63 78 103 0
10 40 65 90 120 0
8 38 63 93 113 0
10 40 65 100 110 0
8 38 63 103 113 0
6 36 66 71 76 0
9 39 69 74 99 0
6 36 66 71 101 0
9 39 69 74 114 0
6 36 66 76 96 0
6 36 66 76 121 0
10 40 70 85 120 0
9 39 69 89 99 0
9 39 69 89 114 0
8 38 68 93 98 0
8 38 68 93 108 0
6 36 66 96 101 0
8 38 68 98 103 0
9 39 69 99 104 0
10 40 70 100 105 0
8 38 68 103 108 0
9 39 69 104 114 0
6 36 66 101 121 0
6 36 71 76 91 0
6 36 71 76 116 0
9 39 74 84 99 0
9 39 74 84 114 0
6 36 71 91 101 0
9 39 74 99 124 0
6 36 71 101 116 0
9 39 74 114 124 0
6 36 76 91 96 0
8 38 78 93 98 0
8 38 78 93 108 0
6 36 76 91 121 0
8 38 78 98 103 0
6 36 76 96 116 0
8 38 78 103 108 0
6 36 76 116 121 0
9 39 84 89 99 0
9 39 84 89 114 0
9 39 84 99 104 0
9 39 84 104 114 0
9 39 89 99 124 0
9 39 89 114 124 0
6 36 91 96 101 0
8 38 93 98 113 0
6 36 91 101 121 0
8 38 93 108 113 0
8 38 98 103 113 0
6 36 96 101 116 0
9 39 99 104 124 0
8 38 103 108 113 0
9 39 104 114 124 0
6 36 101 116 121 0
6 41 46 51 61 0
6 41 46 51 86 0
6 41 46 51 111 0
7 42 47 57 62 0
7 42 47 57 92 0
7 42 47 57 122 0
6 41 46 61 76 0
7 42 47 62 87 0
6 41 46 61 101 0
7 42 47 62 117 0
6 41 46 76 86 0
6 41 46 76 111 0
7 42 47 87 92 0
6 41 46 86 101 0
7 42 47 87 122 0
7 42 47 92 117 0
6 41 46 101 111 0
7 42 47 117 122 0
7 42 52 57 62 0
7 42 52 57 92 0
7 42 52 57 122 0
6 41 51 61 71 0
7 42 52 62 87 0
6 41 51 61 96 0
7 42 52 62 117 0
6 41 51 61 121 0
9 44 54 69 74 0
9 44 54 69 89 0
9 44 54 69 104 0
9 44 54 74 84 0
6 41 51 71 86 0
6 41 51 71 111 0
9 44 54 74 124 0
10 45 55 80 110 0
9 44 54 84 89 0
9 44 54 84 104 0
7 42 52 87 92 0
6 41 51 86 96 0
6 41 51 86 121 0
7 42 52 87 122 0
9 44 54 89 124 0
10 45 55 90 125 0
7 42 52 92 117 0
6 41 51 96 111 0
9 44 54 104 124 0
6 41 51 111 121 0
7 42 52 117 122 0
7 42 57 62 82 0
7 42 57 62 112 0
7 42 57 82 92 0
7 42 57 82 122 0
10 45 60 90 120 0
7 42 57 92 112 0
10 45 60 100 110 0
7 42 57 112 122 0
6 41 61 71 76 0
6 41 61 71 101 0
6 41 61 76 96 0
6 41 61 76 121 0
7 42 62 82 87 0
7 42 62 82 117 0
7 42 62 87 112 0
6 41 61 96 101 0
6 41 61 101 121 0
7 42 62 112 117 0
9 44 69 74 94 0
9 44 69 74 109 0
10 45 70 80 120 0
9 44 69 89 94 0
9 44 69 89 109 0
9 44 69 94 104 0
10 45 70 100 125 0
9 44 69 104 109 0
6 41 71 76 86 0
6 41 71 76 111 0
9 44 74 84 94 0
9 44 74 84 109 0
6 41 71 86 101 0
9 44 74 94 124 0
6 41 71 101 111 0
9 44 74 109 124 0
6 41 76 86 96 0
6 41 76 86 121 0
6 41 76 96 111 0
6 41 76 111 121 0
7 42 82 87 92 0
9 44 84 89 94 0
9 44 84 89 109 0
7 42 82 87 122 0
9 44 84 94 104 0
7 42 82 92 117 0
9 44 84 104 109 0
7 42 82 117 122 0
7 42 87 92 112 0
9 44 89 94 124 0
6 41 86 96 101 0
6 41 86 101 121 0
9 44 89 109 124 0
7 42 87 112 122 0
9 44 94 104 124 0
7 42 92 112 117 0
6 41 96 101 111 0
9 44 104 109 124 0
6 41 101 111 121 0
7 42 112 117 122 0
6 46 51 61 66 0
6 46 51 61 91 0
6 46 51 61 116 0
6 46 51 66 86 0
6 46 51 66 111 0
10 50 55 80 105 0
10 50 55 85 125 0
6 46 51 86 91 0
6 46 51 86 116 0
6 46 51 91 111 0
6 46 51 111 116 0
7 47 57 62 72 0
7 47 57 62 77 0
7 47 57 62 107 0
7 47 57 72 92 0
7 47 57 72 122 0
7 47 57 77 92 0
7 47 57 77 122 0
10 50 60 85 120 0
7 47 57 92 107 0
10 50 60 100 105 0
7 47 57 107 122 0
8 48 63 68 73 0
6 46 61 66 76 0
8 48 63 68 83 0
6 46 61 66 101 0
8 48 63 68 118 0
8 48 63 73 78 0
7 47 62 72 87 0
8 48 63 73 113 0
7 47 62 72 117 0
8 48 63 78 83 0
7 47 62 77 87 0
6 46 61 76 91 0
6 46 61 76 116 0
7 47 62 77 117 0
8 48 63 78 118 0
10 50 65 80 120 0
8 48 63 83 113 0
7 47 62 87 107 0
6 46 61 91 101 0
10 50 65 100 125 0
6 46 61 101 116 0
7 47 62 107 117 0
8 48 63 113 118 0
8 48 68 73 98 0
8 48 68 73 108 0
6 46 66 76 86 0
6 46 66 76 111 0
8 48 68 83 98 0
8 48 68 83 108 0
6 46 66 86 101 0
8 48 68 98 118 0
6 46 66 101 111 0
8 48 68 108 118 0
8 48 73 78 98 0
8 48 73 78 108 0
7 47 72 87 92 0
7 47 72 87 122 0
7 47 72 92 117 0
8 48 73 98 113 0
8 48 73 108 113 0
7 47 72 117 122 0
8 48 78 83 98 0
8 48 78 83 108 0
6 46 76 86 91 0
7 47 77 87 92 0
6 46 76 86 116 0
7 47 77 87 122 0
6 46 76 91 111 0
7 47 77 92 117 0
8 48 78 98 118 0
8 48 78 108 118 0
6 46 76 111 116 0
7 47 77 117 122 0
8 48 83 98 113 0
8 48 83 108 113 0
6 46 86 91 101 0
7 47 87 92 107 0
6 46 86 101 116 0
7 47 87 107 122 0
6 46 91 101 111 0
7 47 92 107 117 0
8 48 98 113 118 0
6 46 101 111 116 0
8 48 108 113 118 0
7 47 107 117 122 0
7 52 57 62 72 0
7 52 57 62 77 0
7 52 57 62 107 0
9 54 59 69 74 0
9 54 59 69 89 0
9 54 59 69 104 0
9 54 59 74 84 0
7 52 57 72 92 0
7 52 57 72 122 0
9 54 59 74 124 0
7 52 57 77 92 0
7 52 57 77 122 0
9 54 59 84 89 0
9 54 59 84 104 0
9 54 59 89 124 0
7 52 57 92 107 0
9 54 59 104 124 0
7 52 57 107 122 0
6 51 61 66 71 0
6 51 61 66 96 0
6 51 61 66 121 0
7 52 62 72 87 0
6 51 61 71 91 0
6 51 61 71 116 0
7 52 62 72 117 0
7 52 62 77 87 0
7 52 62 77 117 0
7 52 62 87 107 0
6 51 61 91 96 0
6 51 61 91 121 0
6 51 61 96 116 0
7 52 62 107 117 0
6 51 61 116 121 0
6 51 66 71 86 0
9 54 69 74 99 0
6 51 66 71 111 0
9 54 69 74 114 0
6 51 66 86 96 0
9 54 69 89 99 0
9 54 69 89 114 0
6 51 66 86 121 0
9 54 69 99 104 0
6 51 66 96 111 0
9 54 69 104 114 0
6 51 66 111 121 0
9 54 74 84 99 0
9 54 74 84 114 0
6 51 71 86 91 0
7 52 72 87 92 0
6 51 71 86 116 0
7 52 72 87 122 0
6 51 71 91 111 0
7 52 72 92 117 0
9 54 74 99 124 0
6 51 71 111 116 0
9 54 74 114 124 0
7 52 72 117 122 0
7 52 77 87 92 0
7 52 77 87 122 0
7 52 77 92 117 0
7 52 77 117 122 0
9 54 84 89 99 0
9 54 84 89 114 0
9 54 84 99 104 0
9 54 84 104 114 0
6 51 86 91 96 0
7 52 87 92 107 0
6 51 86 91 121 0
6 51 86 96 116 0
9 54 89 99 124 0
7 52 87 107 122 0
9 54 89 114 124 0
6 51 86 116 121 0
6 51 91 96 111 0
7 52 92 107 117 0
6 51 91 111 121 0
9 54 99 104 124 0
6 51 96 111 116 0
9 54 104 114 124 0
7 52 107 117 122 0
6 51 111 116 121 0
8 58 63 68 73 0
8 58 63 68 83 0
8 58 63 68 118 0
8 58 63 73 78 0
7 57 62 72 82 0
7 57 62 72 112 0
8 58 63 73 113 0
7 57 62 77 82 0
8 58 63 78 83 0
7 57 62 77 112 0
8 58 63 78 118 0
7 57 62 82 107 0
8 58 63 83 113 0
7 57 62 107 112 0
8 58 63 113 118 0
9 59 69 74 94 0
8 58 68 73 98 0
8 58 68 73 108 0
9 59 69 74 109 0
8 58 68 83 98 0
8 58 68 83 108 0
9 59 69 89 94 0
9 59 69 89 109 0
9 59 69 94 104 0
8 58 68 98 118 0
9 59 69 104 109 0
8 58 68 108 118 0
8 58 73 78 98 0
8 58 73 78 108 0
7 57 72 82 92 0
9 59 74 84 94 0
9 59 74 84 109 0
7 57 72 82 122 0
7 57 72 92 112 0
9 59 74 94 124 0
8 58 73 98 113 0
8 58 73 108 113 0
9 59 74 109 124 0
7 57 72 112 122 0
7 57 77 82 92 0
8 58 78 83 98 0
8 58 78 83 108 0
7 57 77 82 122 0
7 57 77 92 112 0
8 58 78 98 118 0
8 58 78 108 118 0
7 57 77 112 122 0
9 59 84 89 94 0
9 59 84 89 109 0
9 59 84 94 104 0
7 57 82 92 107 0
8 58 83 98 113 0
9 59 84 104 109 0
8 58 83 108 113 0
7 57 82 107 122 0
9 59 89 94 124 0
9 59 89 109 124 0
9 59 94 104 124 0
7 57 92 107 112 0
8 58 98 113 118 0
9 59 104 109 124 0
8 58 108 113 118 0
7 57 107 112 122 0
6 61 66 71 76 0
8 63 68 73 93 0
6 61 66 71 101 0
8 63 68 73 103 0
6 61 66 76 96 0
6 61 66 76 121 0
8 63 68 83 93 0
8 63 68 83 103 0
8 63 68 93 118 0
6 61 66 96 101 0
8 63 68 103 118 0
6 61 66 101 121 0
6 61 71 76 91 0
8 63 73 78 93 0
8 63 73 78 103 0
6 61 71 76 116 0
7 62 72 82 87 0
7 62 72 82 117 0
7 62 72 87 112 0
6 61 71 91 101 0
8 63 73 93 113 0
8 63 73 103 113 0
6 61 71 101 116 0
7 62 72 112 117 0
7 62 77 82 87 0
8 63 78 83 93 0
8 63 78 83 103 0
7 62 77 82 117 0
7 62 77 87 112 0
6 61 76 91 96 0
8 63 78 93 118 0
6 61 76 91 121 0
6 61 76 96 116 0
8 63 78 103 118 0
7 62 77 112 117 0
6 61 76 116 121 0
7 62 82 87 107 0
8 63 83 93 113 0
8 63 83 103 113 0
7 62 82 107 117 0
7 62 87 107 112 0
6 61 91 96 101 0
6 61 91 101 121 0
8 63 93 113 118 0
6 61 96 101 116 0
8 63 103 113 118 0
6 61 101 116 121 0
7 62 107 112 117 0
6 66 71 76 86 0
6 66 71 76 111 0
6 66 71 86 101 0
8 68 73 93 98 0
9 69 74 94 99 0
8 68 73 93 108 0
9 69 74 94 114 0
8 68 73 98 103 0
9 69 74 99 109 0
8 68 73 103 108 0
6 66 71 101 111 0
9 69 74 109 114 0
6 66 76 86 96 0
6 66 76 86 121 0
6 66 76 96 111 0
6 66 76 111 121 0
8 68 83 93 98 0
8 68 83 93 108 0
8 68 83 98 103 0
8 68 83 103 108 0
9 69 89 94 99 0
9 69 89 94 114 0
6 66 86 96 101 0
9 69 89 99 109 0
6 66 86 101 121 0
9 69 89 109 114 0
9 69 94 99 104 0
8 68 93 98 118 0
9 69 94 104 114 0
8 68 93 108 118 0
9 69 99 104 109 0
6 66 96 101 111 0
8 68 98 103 118 0
9 69 104 109 114 0
8 68 103 108 118 0
6 66 101 111 121 0
6 71 76 86 91 0
6 71 76 86 116 0
8 73 78 93 98 0
8 73 78 93 108 0
6 71 76 91 111 0
8 73 78 98 103 0
8 73 78 103 108 0
6 71 76 111 116 0
7 72 82 87 92 0
7 72 82 87 122 0
9 74 84 94 99 0
9 74 84 94 114 0
7 72 82 92 117 0
9 74 84 99 109 0
9 74 84 109 114 0
7 72 82 117 122 0
6 71 86 91 101 0
7 72 87 92 112 0
6 71 86 101 116 0
7 72 87 112 122 0
8 73 93 98 113 0
9 74 94 99 124 0
6 71 91 101 111 0
8 73 93 108 113 0
7 72 92 112 117 0
9 74 94 114 124 0
8 73 98 103 113 0
9 74 99 109 124 0
8 73 103 108 113 0
6 71 101 111 116 0
9 74 109 114 124 0
7 72 112 117 122 0
7 77 82 87 92 0
7 77 82 87 122 0
8 78 83 93 98 0
8 78 83 93 108 0
7 77 82 92 117 0
8 78 83 98 103 0
8 78 83 103 108 0
7 77 82 117 122 0
6 76 86 91 96 0
7 77 87 92 112 0
6 76 86 91 121 0
6 76 86 96 116 0
7 77 87 112 122 0
6 76 86 116 121 0
6 76 91 96 111 0
8 78 93 98 118 0
8 78 93 108 118 0
7 77 92 112 117 0
6 76 91 111 121 0
8 78 98 103 118 0
6 76 96 111 116 0
8 78 103 108 118 0
6 76 111 116 121 0
7 77 112 117 122 0
9 84 89 94 99 0
7 82 87 92 107 0
9 84 89 94 114 0
9 84 89 99 109 0
9 84 89 109 114 0
7 82 87 107 122 0
9 84 94 99 104 0
8 83 93 98 113 0
9 84 94 104 114 0
8 83 93 108 113 0
7 82 92 107 117 0
9 84 99 104 109 0
8 83 98 103 113 0
8 83 103 108 113 0
9 84 104 109 114 0
7 82 107 117 122 0
6 86 91 96 101 0
9 89 94 99 124 0
6 86 91 101 121 0
7 87 92 107 112 0
9 89 94 114 124 0
6 86 96 101 116 0
9 89 99 109 124 0
6 86 101 116 121 0
7 87 107 112 122 0
9 89 109 114 124 0
6 91 96 101 111 0
9 94 99 104 124 0
8 93 98 113 118 0
6 91 101 111 121 0
9 94 104 114 124 0
7 92 107 112 117 0
8 93 108 113 118 0
9 99 104 109 124 0
6 96 101 111 116 0
8 98 103 113 118 0
8 103 108 113 118 0
9 104 109 114 124 0
6 101 111 116 121 0
7 107 112 117 122 0
11 16 21 26 31 0
11 16 21 26 56 0
11 16 21 26 81 0
11 16 21 26 106 0
12 17 22 32 37 0
11 16 21 31 51 0
12 17 22 32 67 0
11 16 21 31 76 0
12 17 22 32 97 0
11 16 21 31 101 0
12 17 22 32 102 0
13 18 23 38 43 0
13 18 23 38 53 0
12 17 22 37 62 0
13 18 23 38 88 0
12 17 22 37 92 0
12 17 22 37 122 0
13 18 23 38 123 0
14 19 24 44 49 0
14 19 24 44 64 0
13 18 23 43 73 0
14 19 24 44 79 0
13 18 23 43 83 0
13 18 23 43 118 0
14 19 24 44 119 0
14 19 24 49 59 0
14 19 24 49 99 0
14 19 24 49 114 0
11 16 21 51 56 0
13 18 23 53 73 0
11 16 21 51 81 0
13 18 23 53 83 0
11 16 21 51 106 0
13 18 23 53 118 0
14 19 24 59 64 0
11 16 21 56 76 0
14 19 24 59 79 0
11 16 21 56 101 0
14 19 24 59 119 0
12 17 22 62 67 0
12 17 22 62 97 0
14 19 24 64 99 0
12 17 22 62 102 0
14 19 24 64 114 0
12 17 22 67 92 0
12 17 22 67 122 0
13 18 23 73 88 0
13 18 23 73 123 0
11 16 21 76 81 0
14 19 24 79 99 0
11 16 21 76 106 0
14 19 24 79 114 0
13 18 23 83 88 0
11 16 21 81 101 0
13 18 23 83 123 0
13 18 23 88 118 0
12 17 22 92 97 0
12 17 22 92 102 0
14 19 24 99 119 0
12 17 22 97 122 0
11 16 21 101 106 0
12 17 22 102 122 0
14 19 24 114 119 0
13 18 23 118 123 0
12 17 27 32 37 0
11 16 26 31 46 0
12 17 27 32 67 0
11 16 26 31 71 0
11 16 26 31 96 0
12 17 27 32 97 0
12 17 27 32 102 0
11 16 26 31 121 0
12 17 27 37 62 0
12 17 27 37 92 0
12 17 27 37 122 0
11 16 26 46 56 0
11 16 26 46 81 0
11 16 26 46 106 0
11 16 26 56 71 0
11 16 26 56 96 0
11 16 26 56 121 0
12 17 27 62 67 0
12 17 27 62 97 0
12 17 27 62 102 0
12 17 27 67 92 0
12 17 27 67 122 0
11 16 26 71 81 0
11 16 26 71 106 0
11 16 26 81 96 0
11 16 26 81 121 0
12 17 27 92 97 0
12 17 27 92 102 0
11 16 26 96 106 0
12 17 27 97 122 0
12 17 27 102 122 0
11 16 26 106 121 0
13 18 33 38 43 0
13 18 33 38 53 0
12 17 32 37 57 0
12 17 32 37 87 0
13 18 33 38 88 0
12 17 32 37 117 0
13 18 33 38 123 0
13 18 33 43 73 0
13 18 33 43 83 0
13 18 33 43 118 0
11 16 31 46 51 0
11 16 31 46 76 0
11 16 31 46 101 0
11 16 31 51 71 0
13 18 33 53 73 0
13 18 33 53 83 0
11 16 31 51 96 0
13 18 33 53 118 0
11 16 31 51 121 0
12 17 32 57 67 0
12 17 32 57 97 0
12 17 32 57 102 0
12 17 32 67 87 0
12 17 32 67 117 0
11 16 31 71 76 0
13 18 33 73 88 0
11 16 31 71 101 0
13 18 33 73 123 0
11 16 31 76 96 0
11 16 31 76 121 0
13 18 33 83 88 0
13 18 33 83 123 0
12 17 32 87 97 0
12 17 32 87 102 0
13 18 33 88 118 0
11 16 31 96 101 0
12 17 32 97 117 0
12 17 32 102 117 0
11 16 31 101 121 0
13 18 33 118 123 0
14 19 39 44 49 0
14 19 39 44 64 0
13 18 38 43 68 0
13 18 38 43 78 0
14 19 39 44 79 0
13 18 38 43 113 0
14 19 39 44 119 0
14 19 39 49 59 0
14 19 39 49 99 0
14 19 39 49 114 0
13 18 38 53 68 0
13 18 38 53 78 0
13 18 38 53 113 0
12 17 37 57 62 0
14 19 39 59 64 0
14 19 39 59 79 0
12 17 37 57 92 0
14 19 39 59 119 0
12 17 37 57 122 0
12 17 37 62 87 0
14 19 39 64 99 0
14 19 39 64 114 0
12 17 37 62 117 0
13 18 38 68 88 0
13 18 38 68 123 0
13 18 38 78 88 0
14 19 39 79 99 0
14 19 39 79 114 0
13 18 38 78 123 0
12 17 37 87 92 0
13 18 38 88 113 0
12 17 37 87 122 0
12 17 37 92 117 0
14 19 39 99 119 0
14 19 39 114 119 0
13 18 38 113 123 0
12 17 37 117 122 0
14 19 44 49 54 0
14 19 44 49 94 0
14 19 44 49 109 0
14 19 44 54 64 0
14 19 44 54 79 0
14 19 44 54 119 0
14 19 44 64 94 0
14 19 44 64 109 0
13 18 43 68 73 0
13 18 43 68 83 0
13 18 43 68 118 0
13 18 43 73 78 0
13 18 43 73 113 0
13 18 43 78 83 0
14 19 44 79 94 0
14 19 44 79 109 0
13 18 43 78 118 0
13 18 43 83 113 0
14 19 44 94 119 0
14 19 44 109 119 0
13 18 43 113 118 0
11 16 46 51 56 0
14 19 49 54 59 0
11 16 46 51 81 0
14 19 49 54 99 0
11 16 46 51 106 0
14 19 49 54 114 0
11 16 46 56 76 0
14 19 49 59 94 0
11 16 46 56 101 0
14 19 49 59 109 0
11 16 46 76 81 0
11 16 46 76 106 0
11 16 46 81 101 0
14 19 49 94 99 0
14 19 49 94 114 0
14 19 49 99 109 0
11 16 46 101 106 0
14 19 49 109 114 0
14 19 54 59 64 0
11 16 51 56 71 0
14 19 54 59 79 0
11 16 51 56 96 0
14 19 54 59 119 0
11 16 51 56 121 0
14 19 54 64 99 0
14 19 54 64 114 0
13 18 53 68 73 0
13 18 53 68 83 0
13 18 53 68 118 0
13 18 53 73 78 0
11 16 51 71 81 0
11 16 51 71 106 0
13 18 53 73 113 0
13 18 53 78 83 0
14 19 54 79 99 0
14 19 54 79 114 0
13 18 53 78 118 0
11 16 51 81 96 0
13 18 53 83 113 0
11 16 51 81 121 0
11 16 51 96 106 0
14 19 54 99 119 0
11 16 51 106 121 0
13 18 53 113 118 0
14 19 54 114 119 0
12 17 57 62 67 0
14 19 59 64 94 0
12 17 57 62 97 0
12 17 57 62 102 0
14 19 59 64 109 0
12 17 57 67 92 0
12 17 57 67 122 0
11 16 56 71 76 0
11 16 56 71 101 0
14 19 59 79 94 0
11 16 56 76 96 0
14 19 59 79 109 0
11 16 56 76 121 0
12 17 57 92 97 0
12 17 57 92 102 0
14 19 59 94 119 0
11 16 56 96 101 0
12 17 57 97 122 0
11 16 56 101 121 0
12 17 57 102 122 0
14 19 59 109 119 0
12 17 62 67 87 0
12 17 62 67 117 0
12 17 62 87 97 0
12 17 62 87 102 0
14 19 64 94 99 0
14 19 64 94 114 0
14 19 64 99 109 0
12 17 62 97 117 0
12 17 62 102 117 0
14 19 64 109 114 0
13 18 68 73 88 0
13 18 68 73 123 0
13 18 68 83 88 0
13 18 68 83 123 0
12 17 67 87 92 0
13 18 68 88 118 0
12 17 67 87 122 0
12 17 67 92 117 0
12 17 67 117 122 0
13 18 68 118 123 0
11 16 71 76 81 0
13 18 73 78 88 0
11 16 71 76 106 0
13 18 73 78 123 0
11 16 71 81 101 0
13 18 73 88 113 0
11 16 71 101 106 0
13 18 73 113 123 0
13 18 78 83 88 0
11 16 76 81 96 0
11 16 76 81 121 0
13 18 78 83 123 0
13 18 78 88 118 0
14 19 79 94 99 0
14 19 79 94 114 0
11 16 76 96 106 0
14 19 79 99 109 0
14 19 79 109 114 0
11 16 76 106 121 0
13 18 78 118 123 0
13 18 83 88 113 0
11 16 81 96 101 0
11 16 81 101 121 0
13 18 83 113 123 0
12 17 87 92 97 0
12 17 87 92 102 0
12 17 87 97 122 0
12 17 87 102 122 0
13 18 88 113 118 0
12 17 92 97 117 0
14 19 94 99 119 0
12 17 92 102 117 0
14 19 94 114 119 0
11 16 96 101 106 0
14 19 99 109 119 0
12 17 97 117 122 0
11 16 101 106 121 0
12 17 102 117 122 0
14 19 109 114 119 0
13 18 113 118 123 0
11 21 26 31 41 0
11 21 26 31 66 0
11 21 26 31 91 0
11 21 26 31 116 0
13 23 28 38 43 0
13 23 28 38 53 0
13 23 28 38 88 0
13 23 28 38 123 0
11 21 26 41 56 0
13 23 28 43 73 0
11 21 26 41 81 0
13 23 28 43 83 0
11 21 26 41 106 0
13 23 28 43 118 0
13 23 28 53 73 0
13 23 28 53 83 0
13 23 28 53 118 0
11 21 26 56 66 0
11 21 26 56 91 0
11 21 26 56 116 0
11 21 26 66 81 0
11 21 26 66 106 0
13 23 28 73 88 0
13 23 28 73 123 0
13 23 28 83 88 0
11 21 26 81 91 0
11 21 26 81 116 0
13 23 28 83 123 0
13 23 28 88 118 0
11 21 26 91 106 0
11 21 26 106 116 0
13 23 28 118 123 0
12 22 32 37 47 0
12 22 32 37 52 0
12 22 32 37 82 0
12 22 32 37 112 0
14 24 34 44 49 0
11 21 31 41 51 0
14 24 34 44 64 0
11 21 31 41 76 0
14 24 34 44 79 0
11 21 31 41 101 0
14 24 34 44 119 0
14 24 34 49 59 0
12 22 32 47 67 0
12 22 32 47 97 0
14 24 34 49 99 0
12 22 32 47 102 0
14 24 34 49 114 0
11 21 31 51 66 0
12 22 32 52 67 0
11 21 31 51 91 0
12 22 32 52 97 0
12 22 32 52 102 0
11 21 31 51 116 0
14 24 34 59 64 0
14 24 34 59 79 0
14 24 34 59 119 0
14 24 34 64 99 0
14 24 34 64 114 0
11 21 31 66 76 0
12 22 32 67 82 0
11 21 31 66 101 0
12 22 32 67 112 0
11 21 31 76 91 0
14 24 34 79 99 0
14 24 34 79 114 0
11 21 31 76 116 0
12 22 32 82 97 0
12 22 32 82 102 0
11 21 31 91 101 0
12 22 32 97 112 0
14 24 34 99 119 0
12 22 32 102 112 0
11 21 31 101 116 0
14 24 34 114 119 0
13 23 38 43 63 0
13 23 38 43 98 0
13 23 38 43 108 0
12 22 37 47 62 0
12 22 37 47 92 0
12 22 37 47 122 0
12 22 37 52 62 0
13 23 38 53 63 0
12 22 37 52 92 0
13 23 38 53 98 0
13 23 38 53 108 0
12 22 37 52 122 0
12 22 37 62 82 0
13 23 38 63 88 0
12 22 37 62 112 0
13 23 38 63 123 0
12 22 37 82 92 0
12 22 37 82 122 0
13 23 38 88 98 0
13 23 38 88 108 0
12 22 37 92 112 0
13 23 38 98 123 0
13 23 38 108 123 0
12 22 37 112 122 0
14 24 44 49 74 0
14 24 44 49 89 0
14 24 44 49 104 0
11 21 41 51 56 0
11 21 41 51 81 0
11 21 41 51 106 0
11 21 41 56 76 0
11 21 41 56 101 0
13 23 43 63 73 0
14 24 44 64 74 0
13 23 43 63 83 0
14 24 44 64 89 0
14 24 44 64 104 0
13 23 43 63 118 0
14 24 44 74 79 0
13 23 43 73 98 0
13 23 43 73 108 0
14 24 44 74 119 0
11 21 41 76 81 0
14 24 44 79 89 0
14 24 44 79 104 0
11 21 41 76 106 0
13 23 43 83 98 0
11 21 41 81 101 0
13 23 43 83 108 0
14 24 44 89 119 0
13 23 43 98 118 0
11 21 41 101 106 0
14 24 44 104 119 0
13 23 43 108 118 0
14 24 49 59 74 0
14 24 49 59 89 0
14 24 49 59 104 0
12 22 47 62 67 0
12 22 47 62 97 0
12 22 47 62 102 0
12 22 47 67 92 0
12 22 47 67 122 0
14 24 49 74 99 0
14 24 49 74 114 0
14 24 49 89 99 0
14 24 49 89 114 0
12 22 47 92 97 0
12 22 47 92 102 0
14 24 49 99 104 0
12 22 47 97 122 0
14 24 49 104 114 0
12 22 47 102 122 0
11 21 51 56 66 0
11 21 51 56 91 0
11 21 51 56 116 0
12 22 52 62 67 0
13 23 53 63 73 0
13 23 53 63 83 0
12 22 52 62 97 0
12 22 52 62 102 0
13 23 53 63 118 0
11 21 51 66 81 0
12 22 52 67 92 0
11 21 51 66 106 0
12 22 52 67 122 0
13 23 53 73 98 0
13 23 53 73 108 0
11 21 51 81 91 0
13 23 53 83 98 0
13 23 53 83 108 0
11 21 51 81 116 0
12 22 52 92 97 0
12 22 52 92 102 0
11 21 51 91 106 0
13 23 53 98 118 0
12 22 52 97 122 0
12 22 52 102 122 0
11 21 51 106 116 0
13 23 53 108 118 0
14 24 59 64 74 0
14 24 59 64 89 0
14 24 59 64 104 0
11 21 56 66 76 0
11 21 56 66 101 0
14 24 59 74 79 0
14 24 59 74 119 0
14 24 59 79 89 0
11 21 56 76 91 0
14 24 59 79 104 0
11 21 56 76 116 0
14 24 59 89 119 0
11 21 56 91 101 0
11 21 56 101 116 0
14 24 59 104 119 0
12 22 62 67 82 0
12 22 62 67 112 0
13 23 63 73 88 0
14 24 64 74 99 0
14 24 64 74 114 0
13 23 63 73 123 0
13 23 63 83 88 0
12 22 62 82 97 0
12 22 62 82 102 0
13 23 63 83 123 0
14 24 64 89 99 0
14 24 64 89 114 0
13 23 63 88 118 0
14 24 64 99 104 0
12 22 62 97 112 0
12 22 62 102 112 0
14 24 64 104 114 0
13 23 63 118 123 0
11 21 66 76 81 0
11 21 66 76 106 0
12 22 67 82 92 0
11 21 66 81 101 0
12 22 67 82 122 0
12 22 67 92 112 0
11 21 66 101 106 0
12 22 67 112 122 0
14 24 74 79 99 0
14 24 74 79 114 0
13 23 73 88 98 0
13 23 73 88 108 0
14 24 74 99 119 0
13 23 73 98 123 0
13 23 73 108 123 0
14 24 74 114 119 0
11 21 76 81 91 0
11 21 76 81 116 0
14 24 79 89 99 0
14 24 79 89 114 0
11 21 76 91 106 0
14 24 79 99 104 0
14 24 79 104 114 0
11 21 76 106 116 0
13 23 83 88 98 0
13 23 83 88 108 0
12 22 82 92 97 0
11 21 81 91 101 0
12 22 82 92 102 0
12 22 82 97 122 0
13 23 83 98 123 0
11 21 81 101 116 0
12 22 82 102 122 0
13 23 83 108 123 0
13 23 88 98 118 0
14 24 89 99 119 0
13 23 88 108 118 0
14 24 89 114 119 0
12 22 92 97 112 0
11 21 91 101 106 0
12 22 92 102 112 0
14 24 99 104 119 0
12 22 97 112 122 0
13 23 98 118 123 0
11 21 101 106 116 0
14 24 104 114 119 0
12 22 102 112 122 0
13 23 108 118 123 0
13 28 33 38 43 0
12 27 32 37 47 0
12 27 32 37 52 0
13 28 33 38 53 0
12 27 32 37 82 0
13 28 33 38 88 0
12 27 32 37 112 0
13 28 33 38 123 0
11 26 31 41 46 0
11 26 31 41 71 0
13 28 33 43 73 0
13 28 33 43 83 0
11 26 31 41 96 0
13 28 33 43 118 0
11 26 31 41 121 0
11 26 31 46 66 0
12 27 32 47 67 0
11 26 31 46 91 0
12 27 32 47 97 0
12 27 32 47 102 0
11 26 31 46 116 0
12 27 32 52 67 0
13 28 33 53 73 0
13 28 33 53 83 0
12 27 32 52 97 0
12 27 32 52 102 0
13 28 33 53 118 0
11 26 31 66 71 0
12 27 32 67 82 0
11 26 31 66 96 0
12 27 32 67 112 0
11 26 31 66 121 0
13 28 33 73 88 0
11 26 31 71 91 0
11 26 31 71 116 0
13 28 33 73 123 0
13 28 33 83 88 0
12 27 32 82 97 0
12 27 32 82 102 0
13 28 33 83 123 0
13 28 33 88 118 0
11 26 31 91 96 0
11 26 31 91 121 0
12 27 32 97 112 0
11 26 31 96 116 0
12 27 32 102 112 0
11 26 31 116 121 0
13 28 33 118 123 0
13 28 38 43 68 0
13 28 38 43 78 0
13 28 38 43 113 0
12 27 37 47 62 0
12 27 37 47 92 0
12 27 37 47 122 0
12 27 37 52 62 0
13 28 38 53 68 0
13 28 38 53 78 0
12 27 37 52 92 0
13 28 38 53 113 0
12 27 37 52 122 0
12 27 37 62 82 0
12 27 37 62 112 0
13 28 38 68 88 0
13 28 38 68 123 0
13 28 38 78 88 0
13 28 38 78 123 0
12 27 37 82 92 0
12 27 37 82 122 0
13 28 38 88 113 0
12 27 37 92 112 0
12 27 37 112 122 0
13 28 38 113 123 0
11 26 41 46 56 0
11 26 41 46 81 0
11 26 41 46 106 0
11 26 41 56 71 0
11 26 41 56 96 0
11 26 41 56 121 0
13 28 43 68 73 0
13 28 43 68 83 0
13 28 43 68 118 0
13 28 43 73 78 0
11 26 41 71 81 0
11 26 41 71 106 0
13 28 43 73 113 0
13 28 43 78 83 0
13 28 43 78 118 0
11 26 41 81 96 0
13 28 43 83 113 0
11 26 41 81 121 0
11 26 41 96 106 0
11 26 41 106 121 0
13 28 43 113 118 0
11 26 46 56 66 0
11 26 46 56 91 0
11 26 46 56 116 0
12 27 47 62 67 0
12 27 47 62 97 0
12 27 47 62 102 0
11 26 46 66 81 0
12 27 47 67 92 0
11 26 46 66 106 0
12 27 47 67 122 0
11 26 46 81 91 0
11 26 46 81 116 0
12 27 47 92 97 0
12 27 47 92 102 0
11 26 46 91 106 0
12 27 47 97 122 0
12 27 47 102 122 0
11 26 46 106 116 0
12 27 52 62 67 0
12 27 52 62 97 0
12 27 52 62 102 0
13 28 53 68 73 0
13 28 53 68 83 0
12 27 52 67 92 0
13 28 53 68 118 0
12 27 52 67 122 0
13 28 53 73 78 0
13 28 53 73 113 0
13 28 53 78 83 0
13 28 53 78 118 0
13 28 53 83 113 0
12 27 52 92 97 0
12 27 52 92 102 0
12 27 52 97 122 0
12 27 52 102 122 0
13 28 53 113 118 0
11 26 56 66 71 0
11 26 56 66 96 0
11 26 56 66 121 0
11 26 56 71 91 0
11 26 56 71 116 0
15 30 60 85 110 0
15 30 60 90 105 0
11 26 56 91 96 0
11 26 56 91 121 0
11 26 56 96 116 0
11 26 56 116 121 0
12 27 62 67 82 0
12 27 62 67 112 0
15 30 65 80 110 0
12 27 62 82 97 0
12 27 62 82 102 0
15 30 65 90 125 0
12 27 62 97 112 0
12 27 62 102 112 0
11 26 66 71 81 0
13 28 68 73 88 0
11 26 66 71 106 0
13 28 68 73 123 0
15 30 70 80 105 0
13 28 68 83 88 0
12 27 67 82 92 0
11 26 66 81 96 0
11 26 66 81 121 0
12 27 67 82 122 0
13 28 68 83 123 0
15 30 70 85 125 0
13 28 68 88 118 0
12 27 67 92 112 0
11 26 66 96 106 0
11 26 66 106 121 0
12 27 67 112 122 0
13 28 68 118 123 0
13 28 73 78 88 0
13 28 73 78 123 0
11 26 71 81 91 0
11 26 71 81 116 0
13 28 73 88 113 0
11 26 71 91 106 0
11 26 71 106 116 0
13 28 73 113 123 0
13 28 78 83 88 0
13 28 78 83 123 0
13 28 78 88 118 0
13 28 78 118 123 0
13 28 83 88 113 0
11 26 81 91 96 0
12 27 82 92 97 0
12 27 82 92 102 0
11 26 81 91 121 0
11 26 81 96 116 0
12 27 82 97 122 0
12 27 82 102 122 0
13 28 83 113 123 0
11 26 81 116 121 0
13 28 88 113 118 0
11 26 91 96 106 0
12 27 92 97 112 0
12 27 92 102 112 0
11 26 91 106 121 0
11 26 96 106 116 0
12 27 97 112 122 0
12 27 102 112 122 0
11 26 106 116 121 0
13 28 113 118 123 0
14 34 39 44 49 0
13 33 38 43 63 0
14 34 39 44 64 0
14 34 39 44 79 0
13 33 38 43 98 0
13 33 38 43 108 0
14 34 39 44 119 0
12 32 37 47 57 0
14 34 39 49 59 0
12 32 37 47 87 0
14 34 39 49 99 0
14 34 39 49 114 0
12 32 37 47 117 0
12 32 37 52 57 0
13 33 38 53 63 0
12 32 37 52 87 0
13 33 38 53 98 0
13 33 38 53 108 0
12 32 37 52 117 0
14 34 39 59 64 0
14 34 39 59 79 0
12 32 37 57 82 0
12 32 37 57 112 0
14 34 39 59 119 0
13 33 38 63 88 0
14 34 39 64 99 0
14 34 39 64 114 0
13 33 38 63 123 0
14 34 39 79 99 0
14 34 39 79 114 0
12 32 37 82 87 0
12 32 37 82 117 0
13 33 38 88 98 0
13 33 38 88 108 0
12 32 37 87 112 0
14 34 39 99 119 0
13 33 38 98 123 0
13 33 38 108 123 0
12 32 37 112 117 0
14 34 39 114 119 0
11 31 41 46 51 0
14 34 44 49 54 0
11 31 41 46 76 0
14 34 44 49 94 0
11 31 41 46 101 0
14 34 44 49 109 0
14 34 44 54 64 0
11 31 41 51 71 0
14 34 44 54 79 0
11 31 41 51 96 0
14 34 44 54 119 0
11 31 41 51 121 0
13 33 43 63 73 0
13 33 43 63 83 0
14 34 44 64 94 0
14 34 44 64 109 0
13 33 43 63 118 0
11 31 41 71 76 0
13 33 43 73 98 0
11 31 41 71 101 0
13 33 43 73 108 0
14 34 44 79 94 0
11 31 41 76 96 0
14 34 44 79 109 0
11 31 41 76 121 0
13 33 43 83 98 0
13 33 43 83 108 0
14 34 44 94 119 0
11 31 41 96 101 0
13 33 43 98 118 0
11 31 41 101 121 0
13 33 43 108 118 0
14 34 44 109 119 0
14 34 49 54 59 0
11 31 46 51 66 0
11 31 46 51 91 0
14 34 49 54 99 0
14 34 49 54 114 0
11 31 46 51 116 0
12 32 47 57 67 0
14 34 49 59 94 0
12 32 47 57 97 0
12 32 47 57 102 0
14 34 49 59 109 0
11 31 46 66 76 0
12 32 47 67 87 0
11 31 46 66 101 0
12 32 47 67 117 0
11 31 46 76 91 0
11 31 46 76 116 0
12 32 47 87 97 0
12 32 47 87 102 0
14 34 49 94 99 0
11 31 46 91 101 0
14 34 49 94 114 0
14 34 49 99 109 0
12 32 47 97 117 0
11 31 46 101 116 0
12 32 47 102 117 0
14 34 49 109 114 0
14 34 54 59 64 0
12 32 52 57 67 0
14 34 54 59 79 0
12 32 52 57 97 0
12 32 52 57 102 0
14 34 54 59 119 0
13 33 53 63 73 0
13 33 53 63 83 0
14 34 54 64 99 0
14 34 54 64 114 0
13 33 53 63 118 0
11 31 51 66 71 0
12 32 52 67 87 0
11 31 51 66 96 0
12 32 52 67 117 0
11 31 51 66 121 0
11 31 51 71 91 0
13 33 53 73 98 0
13 33 53 73 108 0
11 31 51 71 116 0
14 34 54 79 99 0
14 34 54 79 114 0
13 33 53 83 98 0
13 33 53 83 108 0
12 32 52 87 97 0
12 32 52 87 102 0
11 31 51 91 96 0
11 31 51 91 121 0
11 31 51 96 116 0
12 32 52 97 117 0
13 33 53 98 118 0
14 34 54 99 119 0
12 32 52 102 117 0
13 33 53 108 118 0
14 34 54 114 119 0
11 31 51 116 121 0
14 34 59 64 94 0
14 34 59 64 109 0
12 32 57 67 82 0
12 32 57 67 112 0
14 34 59 79 94 0
14 34 59 79 109 0
12 32 57 82 97 0
12 32 57 82 102 0
14 34 59 94 119 0
12 32 57 97 112 0
12 32 57 102 112 0
14 34 59 109 119 0
13 33 63 73 88 0
13 33 63 73 123 0
13 33 63 83 88 0
13 33 63 83 123 0
13 33 63 88 118 0
14 34 64 94 99 0
14 34 64 94 114 0
14 34 64 99 109 0
14 34 64 109 114 0
13 33 63 118 123 0
11 31 66 71 76 0
11 31 66 71 101 0
11 31 66 76 96 0
11 31 66 76 121 0
12 32 67 82 87 0
12 32 67 82 117 0
12 32 67 87 112 0
11 31 66 96 101 0
11 31 66 101 121 0
12 32 67 112 117 0
11 31 71 76 91 0
11 31 71 76 116 0
13 33 73 88 98 0
13 33 73 88 108 0
11 31 71 91 101 0
13 33 73 98 123 0
11 31 71 101 116 0
13 33 73 108 123 0
11 31 76 91 96 0
14 34 79 94 99 0
14 34 79 94 114 0
11 31 76 91 121 0
14 34 79 99 109 0
11 31 76 96 116 0
14 34 79 109 114 0
11 31 76 116 121 0
12 32 82 87 97 0
13 33 83 88 98 0
12 32 82 87 102 0
13 33 83 88 108 0
12 32 82 97 117 0
13 33 83 98 123 0
12 32 82 102 117 0
13 33 83 108 123 0
12 32 87 97 112 0
13 33 88 98 118 0
12 32 87 102 112 0
13 33 88 108 118 0
11 31 91 96 101 0
14 34 94 99 119 0
11 31 91 101 121 0
14 34 94 114 119 0
11 31 96 101 116 0
14 34 99 109 119 0
12 32 97 112 117 0
13 33 98 118 123 0
12 32 102 112 117 0
11 31 101 116 121 0
14 34 109 114 119 0
13 33 108 118 123 0
14 39 44 49 74 0
14 39 44 49 89 0
14 39 44 49 104 0
13 38 43 63 68 0
14 39 44 64 74 0
13 38 43 63 78 0
14 39 44 64 89 0
14 39 44 64 104 0
13 38 43 63 113 0
13 38 43 68 98 0
13 38 43 68 108 0
14 39 44 74 79 0
14 39 44 74 119 0
14 39 44 79 89 0
13 38 43 78 98 0
14 39 44 79 104 0
13 38 43 78 108 0
14 39 44 89 119 0
13 38 43 98 113 0
14 39 44 104 119 0
13 38 43 108 113 0
12 37 47 57 62 0
14 39 49 59 74 0
14 39 49 59 89 0
12 37 47 57 92 0
14 39 49 59 104 0
12 37 47 57 122 0
12 37 47 62 87 0
12 37 47 62 117 0
14 39 49 74 99 0
14 39 49 74 114 0
12 37 47 87 92 0
14 39 49 89 99 0
14 39 49 89 114 0
12 37 47 87 122 0
12 37 47 92 117 0
14 39 49 99 104 0
14 39 49 104 114 0
12 37 47 117 122 0
12 37 52 57 62 0
12 37 52 57 92 0
12 37 52 57 122 0
13 38 53 63 68 0
13 38 53 63 78 0
12 37 52 62 87 0
13 38 53 63 113 0
12 37 52 62 117 0
13 38 53 68 98 0
13 38 53 68 108 0
13 38 53 78 98 0
13 38 53 78 108 0
12 37 52 87 92 0
12 37 52 87 122 0
12 37 52 92 117 0
13 38 53 98 113 0
13 38 53 108 113 0
12 37 52 117 122 0
14 39 59 64 74 0
12 37 57 62 82 0
14 39 59 64 89 0
14 39 59 64 104 0
12 37 57 62 112 0
14 39 59 74 79 0
14 39 59 74 119 0
14 39 59 79 89 0
14 39 59 79 104 0
12 37 57 82 92 0
12 37 57 82 122 0
14 39 59 89 119 0
12 37 57 92 112 0
14 39 59 104 119 0
12 37 57 112 122 0
13 38 63 68 88 0
13 38 63 68 123 0
14 39 64 74 99 0
14 39 64 74 114 0
13 38 63 78 88 0
13 38 63 78 123 0
12 37 62 82 87 0
12 37 62 82 117 0
14 39 64 89 99 0
12 37 62 87 112 0
13 38 63 88 113 0
14 39 64 89 114 0
15 40 65 90 115 0
15 40 65 95 110 0
14 39 64 99 104 0
14 39 64 104 114 0
12 37 62 112 117 0
13 38 63 113 123 0
15 40 70 85 115 0
13 38 68 88 98 0
13 38 68 88 108 0
15 40 70 95 105 0
13 38 68 98 123 0
13 38 68 108 123 0
14 39 74 79 99 0
14 39 74 79 114 0
15 40 75 85 110 0
15 40 75 90 105 0
14 39 74 99 119 0
14 39 74 114 119 0
13 38 78 88 98 0
14 39 79 89 99 0
13 38 78 88 108 0
14 39 79 89 114 0
14 39 79 99 104 0
13 38 78 98 123 0
14 39 79 104 114 0
13 38 78 108 123 0
12 37 82 87 92 0
12 37 82 87 122 0
12 37 82 92 117 0
12 37 82 117 122 0
12 37 87 92 112 0
13 38 88 98 113 0
14 39 89 99 119 0
13 38 88 108 113 0
14 39 89 114 119 0
12 37 87 112 122 0
12 37 92 112 117 0
14 39 99 104 119 0
13 38 98 113 123 0
14 39 104 114 119 0
13 38 108 113 123 0
12 37 112 117 122 0
11 41 46 51 56 0
14 44 49 54 74 0
11 41 46 51 81 0
14 44 49 54 89 0
14 44 49 54 104 0
11 41 46 51 106 0
11 41 46 56 76 0
11 41 46 56 101 0
14 44 49 74 94 0
14 44 49 74 109 0
11 41 46 76 81 0
11 41 46 76 106 0
11 41 46 81 101 0
14 44 49 89 94 0
14 44 49 89 109 0
14 44 49 94 104 0
11 41 46 101 106 0
14 44 49 104 109 0
11 41 51 56 71 0
11 41 51 56 96 0
11 41 51 56 121 0
14 44 54 64 74 0
14 44 54 64 89 0
14 44 54 64 104 0
14 44 54 74 79 0
11 41 51 71 81 0
11 41 51 71 106 0
14 44 54 74 119 0
14 44 54 79 89 0
14 44 54 79 104 0
11 41 51 81 96 0
11 41 51 81 121 0
14 44 54 89 119 0
11 41 51 96 106 0
14 44 54 104 119 0
11 41 51 106 121 0
11 41 56 71 76 0
11 41 56 71 101 0
11 41 56 76 96 0
11 41 56 76 121 0
15 45 60 90 115 0
15 45 60 95 110 0
11 41 56 96 101 0
11 41 56 101 121 0
13 43 63 68 73 0
13 43 63 68 83 0
13 43 63 68 118 0
13 43 63 73 78 0
14 44 64 74 94 0
14 44 64 74 109 0
13 43 63 73 113 0
13 43 63 78 83 0
13 43 63 78 118 0
13 43 63 83 113 0
14 44 64 89 94 0
14 44 64 89 109 0
14 44 64 94 104 0
14 44 64 104 109 0
13 43 63 113 118 0
13 43 68 73 98 0
13 43 68 73 108 0
15 45 70 80 115 0
13 43 68 83 98 0
13 43 68 83 108 0
15 45 70 95 125 0
13 43 68 98 118 0
13 43 68 108 118 0
11 41 71 76 81 0
14 44 74 79 94 0
13 43 73 78 98 0
11 41 71 76 106 0
13 43 73 78 108 0
14 44 74 79 109 0
15 45 75 80 110 0
11 41 71 81 101 0
15 45 75 90 125 0
14 44 74 94 119 0
13 43 73 98 113 0
11 41 71 101 106 0
13 43 73 108 113 0
14 44 74 109 119 0
11 41 76 81 96 0
13 43 78 83 98 0
13 43 78 83 108 0
11 41 76 81 121 0
14 44 79 89 94 0
14 44 79 89 109 0
14 44 79 94 104 0
11 41 76 96 106 0
13 43 78 98 118 0
14 44 79 104 109 0
13 43 78 108 118 0
11 41 76 106 121 0
11 41 81 96 101 0
13 43 83 98 113 0
11 41 81 101 121 0
13 43 83 108 113 0
14 44 89 94 119 0
14 44 89 109 119 0
14 44 94 104 119 0
11 41 96 101 106 0
13 43 98 113 118 0
14 44 104 109 119 0
11 41 101 106 121 0
13 43 108 113 118 0
11 46 51 56 66 0
14 49 54 59 74 0
14 49 54 59 89 0
11 46 51 56 91 0
14 49 54 59 104 0
11 46 51 56 116 0
11 46 51 66 81 0
11 46 51 66 106 0
14 49 54 74 99 0
14 49 54 74 114 0
11 46 51 81 91 0
11 46 51 81 116 0
14 49 54 89 99 0
14 49 54 89 114 0
11 46 51 91 106 0
14 49 54 99 104 0
14 49 54 104 114 0
11 46 51 106 116 0
12 47 57 62 67 0
12 47 57 62 97 0
12 47 57 62 102 0
11 46 56 66 76 0
12 47 57 67 92 0
11 46 56 66 101 0
12 47 57 67 122 0
14 49 59 74 94 0
14 49 59 74 109 0
11 46 56 76 91 0
11 46 56 76 116 0
15 50 60 85 115 0
14 49 59 89 94 0
14 49 59 89 109 0
12 47 57 92 97 0
11 46 56 91 101 0
12 47 57 92 102 0
14 49 59 94 104 0
15 50 60 95 105 0
12 47 57 97 122 0
14 49 59 104 109 0
11 46 56 101 116 0
12 47 57 102 122 0
12 47 62 67 87 0
12 47 62 67 117 0
15 50 65 80 115 0
12 47 62 87 97 0
12 47 62 87 102 0
15 50 65 95 125 0
12 47 62 97 117 0
12 47 62 102 117 0
11 46 66 76 81 0
11 46 66 76 106 0
11 46 66 81 101 0
12 47 67 87 92 0
12 47 67 87 122 0
12 47 67 92 117 0
11 46 66 101 106 0
12 47 67 117 122 0
15 50 75 80 105 0
15 50 75 85 125 0
14 49 74 94 99 0
14 49 74 94 114 0
14 49 74 99 109 0
14 49 74 109 114 0
11 46 76 81 91 0
11 46 76 81 116 0
11 46 76 91 106 0
11 46 76 106 116 0
11 46 81 91 101 0
11 46 81 101 116 0
12 47 87 92 97 0
14 49 89 94 99 0
12 47 87 92 102 0
14 49 89 94 114 0
14 49 89 99 109 0
12 47 87 97 122 0
12 47 87 102 122 0
14 49 89 109 114 0
14 49 94 99 104 0
12 47 92 97 117 0
11 46 91 101 106 0
14 49 94 104 114 0
12 47 92 102 117 0
14 49 99 104 109 0
12 47 97 117 122 0
14 49 104 109 114 0
11 46 101 106 116 0
12 47 102 117 122 0
12 52 57 62 67 0
14 54 59 64 74 0
14 54 59 64 89 0
12 52 57 62 97 0
12 52 57 62 102 0
14 54 59 64 104 0
11 51 56 66 71 0
12 52 57 67 92 0
11 51 56 66 96 0
11 51 56 66 121 0
12 52 57 67 122 0
14 54 59 74 79 0
11 51 56 71 91 0
11 51 56 71 116 0
14 54 59 74 119 0
14 54 59 79 89 0
14 54 59 79 104 0
14 54 59 89 119 0
11 51 56 91 96 0
12 52 57 92 97 0
12 52 57 92 102 0
11 51 56 91 121 0
11 51 56 96 116 0
12 52 57 97 122 0
14 54 59 104 119 0
12 52 57 102 122 0
11 51 56 116 121 0
13 53 63 68 73 0
13 53 63 68 83 0
12 52 62 67 87 0
12 52 62 67 117 0
13 53 63 68 118 0
13 53 63 73 78 0
14 54 64 74 99 0
13 53 63 73 113 0
14 54 64 74 114 0
13 53 63 78 83 0
13 53 63 78 118 0
13 53 63 83 113 0
12 52 62 87 97 0
14 54 64 89 99 0
12 52 62 87 102 0
14 54 64 89 114 0
14 54 64 99 104 0
12 52 62 97 117 0
14 54 64 104 114 0
12 52 62 102 117 0
13 53 63 113 118 0
11 51 66 71 81 0
13 53 68 73 98 0
11 51 66 71 106 0
13 53 68 73 108 0
11 51 66 81 96 0
13 53 68 83 98 0
13 53 68 83 108 0
11 51 66 81 121 0
12 52 67 87 92 0
12 52 67 87 122 0
12 52 67 92 117 0
11 51 66 96 106 0
13 53 68 98 118 0
13 53 68 108 118 0
11 51 66 106 121 0
12 52 67 117 122 0
13 53 73 78 98 0
14 54 74 79 99 0
13 53 73 78 108 0
14 54 74 79 114 0
11 51 71 81 91 0
11 51 71 81 116 0
11 51 71 91 106 0
13 53 73 98 113 0
14 54 74 99 119 0
13 53 73 108 113 0
11 51 71 106 116 0
14 54 74 114 119 0
13 53 78 83 98 0
13 53 78 83 108 0
14 54 79 89 99 0
14 54 79 89 114 0
14 54 79 99 104 0
13 53 78 98 118 0
14 54 79 104 114 0
13 53 78 108 118 0
11 51 81 91 96 0
11 51 81 91 121 0
13 53 83 98 113 0
11 51 81 96 116 0
13 53 83 108 113 0
11 51 81 116 121 0
12 52 87 92 97 0
12 52 87 92 102 0
14 54 89 99 119 0
12 52 87 97 122 0
12 52 87 102 122 0
14 54 89 114 119 0
11 51 91 96 106 0
12 52 92 97 117 0
12 52 92 102 117 0
11 51 91 106 121 0
14 54 99 104 119 0
11 51 96 106 116 0
13 53 98 113 118 0
12 52 97 117 122 0
14 54 104 114 119 0
12 52 102 117 122 0
13 53 108 113 118 0
11 51 106 116 121 0
12 57 62 67 82 0
12 57 62 67 112 0
14 59 64 74 94 0
14 59 64 74 109 0
12 57 62 82 97 0
12 57 62 82 102 0
14 59 64 89 94 0
14 59 64 89 109 0
14 59 64 94 104 0
12 57 62 97 112 0
14 59 64 104 109 0
12 57 62 102 112 0
11 56 66 71 76 0
11 56 66 71 101 0
11 56 66 76 96 0
11 56 66 76 121 0
12 57 67 82 92 0
12 57 67 82 122 0
12 57 67 92 112 0
11 56 66 96 101 0
11 56 66 101 121 0
12 57 67 112 122 0
11 56 71 76 91 0
14 59 74 79 94 0
14 59 74 79 109 0
11 56 71 76 116 0
11 56 71 91 101 0
14 59 74 94 119 0
11 56 71 101 116 0
14 59 74 109 119 0
14 59 79 89 94 0
14 59 79 89 109 0
11 56 76 91 96 0
14 59 79 94 104 0
11 56 76 91 121 0
11 56 76 96 116 0
14 59 79 104 109 0
11 56 76 116 121 0
12 57 82 92 97 0
12 57 82 92 102 0
12 57 82 97 122 0
12 57 82 102 122 0
14 59 89 94 119 0
14 59 89 109 119 0
11 56 91 96 101 0
12 57 92 97 112 0
12 57 92 102 112 0
14 59 94 104 119 0
11 56 91 101 121 0
11 56 96 101 116 0
12 57 97 112 122 0
14 59 104 109 119 0
12 57 102 112 122 0
11 56 101 116 121 0
13 63 68 73 88 0
13 63 68 73 123 0
12 62 67 82 87 0
13 63 68 83 88 0
12 62 67 82 117 0
13 63 68 83 123 0
12 62 67 87 112 0
13 63 68 88 118 0
12 62 67 112 117 0
13 63 68 118 123 0
13 63 73 78 88 0
13 63 73 78 123 0
13 63 73 88 113 0
14 64 74 94 99 0
14 64 74 94 114 0
14 64 74 99 109 0
14 64 74 109 114 0
13 63 73 113 123 0
13 63 78 83 88 0
13 63 78 83 123 0
13 63 78 88 118 0
13 63 78 118 123 0
12 62 82 87 97 0
12 62 82 87 102 0
13 63 83 88 113 0
12 62 82 97 117 0
12 62 82 102 117 0
13 63 83 113 123 0
14 64 89 94 99 0
14 64 89 94 114 0
14 64 89 99 109 0
12 62 87 97 112 0
12 62 87 102 112 0
14 64 89 109 114 0
13 63 88 113 118 0
14 64 94 99 104 0
14 64 94 104 114 0
14 64 99 104 109 0
12 62 97 112 117 0
14 64 104 109 114 0
12 62 102 112 117 0
13 63 113 118 123 0
11 66 71 76 81 0
11 66 71 76 106 0
11 66 71 81 101 0
13 68 73 88 98 0
13 68 73 88 108 0
13 68 73 98 123 0
11 66 71 101 106 0
13 68 73 108 123 0
11 66 76 81 96 0
11 66 76 81 121 0
11 66 76 96 106 0
11 66 76 106 121 0
12 67 82 87 92 0
13 68 83 88 98 0
13 68 83 88 108 0
12 67 82 87 122 0
12 67 82 92 117 0
11 66 81 96 101 0
13 68 83 98 123 0
11 66 81 101 121 0
13 68 83 108 123 0
12 67 82 117 122 0
12 67 87 92 112 0
13 68 88 98 118 0
13 68 88 108 118 0
12 67 87 112 122 0
12 67 92 112 117 0
11 66 96 101 106 0
13 68 98 118 123 0
11 66 101 106 121 0
13 68 108 118 123 0
12 67 112 117 122 0
11 71 76 81 91 0
11 71 76 81 116 0
13 73 78 88 98 0
13 73 78 88 108 0
14 74 79 94 99 0
11 71 76 91 106 0
14 74 79 94 114 0
14 74 79 99 109 0
13 73 78 98 123 0
14 74 79 109 114 0
11 71 76 106 116 0
13 73 78 108 123 0
11 71 81 91 101 0
11 71 81 101 116 0
13 73 88 98 113 0
13 73 88 108 113 0
14 74 94 99 119 0
11 71 91 101 106 0
14 74 94 114 119 0
14 74 99 109 119 0
13 73 98 113 123 0
11 71 101 106 116 0
14 74 109 114 119 0
13 73 108 113 123 0
13 78 83 88 98 0
13 78 83 88 108 0
11 76 81 91 96 0
11 76 81 91 121 0
11 76 81 96 116 0
13 78 83 98 123 0
13 78 83 108 123 0
11 76 81 116 121 0
14 79 89 94 99 0
14 79 89 94 114 0
14 79 89 99 109 0
13 78 88 98 118 0
14 79 89 109 114 0
13 78 88 108 118 0
14 79 94 99 104 0
11 76 91 96 106 0
14 79 94 104 114 0
11 76 91 106 121 0
14 79 99 104 109 0
11 76 96 106 116 0
13 78 98 118 123 0
14 79 104 109 114 0
11 76 106 116 121 0
13 78 108 118 123 0
12 82 87 92 97 0
12 82 87 92 102 0
13 83 88 98 113 0
12 82 87 97 122 0
12 82 87 102 122 0
13 83 88 108 113 0
11 81 91 96 101 0
12 82 92 97 117 0
12 82 92 102 117 0
11 81 91 101 121 0
11 81 96 101 116 0
13 83 98 113 123 0
12 82 97 117 122 0
11 81 101 116 121 0
12 82 102 117 122 0
13 83 108 113 123 0
12 87 92 97 112 0
14 89 94 99 119 0
12 87 92 102 112 0
14 89 94 114 119 0
14 89 99 109 119 0
13 88 98 113 118 0
12 87 97 112 122 0
12 87 102 112 122 0
13 88 108 113 118 0
14 89 109 114 119 0
11 91 96 101 106 0
14 94 99 104 119 0
12 92 97 112 117 0
11 91 101 106 121 0
12 92 102 112 117 0
14 94 104 114 119 0
11 96 101 106 116 0
14 99 104 109 119 0
12 97 112 117 122 0
13 98 113 118 123 0
14 104 109 114 119 0
11 101 106 116 121 0
12 102 112 117 122 0
13 108 113 118 123 0
16 21 26 31 36 0
16 21 26 31 61 0
16 21 26 31 86 0
16 21 26 31 111 0
16 21 26 36 56 0
16 21 26 36 81 0
16 21 26 36 106 0
19 24 29 44 49 0
19 24 29 44 64 0
19 24 29 44 79 0
19 24 29 44 119 0
19 24 29 49 59 0
19 24 29 49 99 0
19 24 29 49 114 0
16 21 26 56 61 0
19 24 29 59 64 0
19 24 29 59 79 0
16 21 26 56 86 0
16 21 26 56 111 0
19 24 29 59 119 0
16 21 26 61 81 0
19 24 29 64 99 0
16 21 26 61 106 0
19 24 29 64 114 0
19 24 29 79 99 0
19 24 29 79 114 0
16 21 26 81 86 0
16 21 26 81 111 0
16 21 26 86 106 0
19 24 29 99 119 0
16 21 26 106 111 0
19 24 29 114 119 0
17 22 32 37 42 0
16 21 31 36 51 0
17 22 32 37 72 0
16 21 31 36 76 0
17 22 32 37 77 0
16 21 31 36 101 0
17 22 32 37 107 0
17 22 32 42 67 0
17 22 32 42 97 0
17 22 32 42 102 0
16 21 31 51 61 0
16 21 31 51 86 0
16 21 31 51 111 0
16 21 31 61 76 0
16 21 31 61 101 0
17 22 32 67 72 0
17 22 32 67 77 0
17 22 32 67 107 0
17 22 32 72 97 0
17 22 32 72 102 0
16 21 31 76 86 0
17 22 32 77 97 0
17 22 32 77 102 0
16 21 31 76 111 0
16 21 31 86 101 0
17 22 32 97 107 0
17 22 32 102 107 0
16 21 31 101 111 0
18 23 38 43 48 0
18 23 38 43 58 0
17 22 37 42 62 0
17 22 37 42 92 0
18 23 38 43 93 0
18 23 38 43 103 0
17 22 37 42 122 0
18 23 38 48 53 0
18 23 38 48 88 0
18 23 38 48 123 0
16 21 36 51 56 0
18 23 38 53 58 0
16 21 36 51 81 0
18 23 38 53 93 0
18 23 38 53 103 0
16 21 36 51 106 0
16 21 36 56 76 0
18 23 38 58 88 0
16 21 36 56 101 0
18 23 38 58 123 0
17 22 37 62 72 0
17 22 37 62 77 0
17 22 37 62 107 0
17 22 37 72 92 0
17 22 37 72 122 0
16 21 36 76 81 0
17 22 37 77 92 0
16 21 36 76 106 0
17 22 37 77 122 0
16 21 36 81 101 0
18 23 38 88 93 0
18 23 38 88 103 0
17 22 37 92 107 0
18 23 38 93 123 0
16 21 36 101 106 0
18 23 38 103 123 0
17 22 37 107 122 0
19 24 44 49 69 0
18 23 43 48 73 0
18 23 43 48 83 0
19 24 44 49 84 0
18 23 43 48 118 0
19 24 44 49 124 0
18 23 43 58 73 0
18 23 43 58 83 0
18 23 43 58 118 0
17 22 42 62 67 0
19 24 44 64 69 0
19 24 44 64 84 0
17 22 42 62 97 0
17 22 42 62 102 0
19 24 44 64 124 0
19 24 44 69 79 0
17 22 42 67 92 0
19 24 44 69 119 0
17 22 42 67 122 0
18 23 43 73 93 0
18 23 43 73 103 0
19 24 44 79 84 0
19 24 44 79 124 0
18 23 43 83 93 0
18 23 43 83 103 0
19 24 44 84 119 0
17 22 42 92 97 0
17 22 42 92 102 0
18 23 43 93 118 0
17 22 42 97 122 0
18 23 43 103 118 0
17 22 42 102 122 0
19 24 44 119 124 0
18 23 48 53 73 0
18 23 48 53 83 0
18 23 48 53 118 0
19 24 49 59 69 0
19 24 49 59 84 0
19 24 49 59 124 0
19 24 49 69 99 0
19 24 49 69 114 0
18 23 48 73 88 0
18 23 48 73 123 0
18 23 48 83 88 0
19 24 49 84 99 0
19 24 49 84 114 0
18 23 48 83 123 0
18 23 48 88 118 0
19 24 49 99 124 0
19 24 49 114 124 0
18 23 48 118 123 0
16 21 51 56 61 0
18 23 53 58 73 0
18 23 53 58 83 0
16 21 51 56 86 0
16 21 51 56 111 0
18 23 53 58 118 0
16 21 51 61 81 0
16 21 51 61 106 0
18 23 53 73 93 0
18 23 53 73 103 0
16 21 51 81 86 0
18 23 53 83 93 0
18 23 53 83 103 0
16 21 51 81 111 0
16 21 51 86 106 0
18 23 53 93 118 0
18 23 53 103 118 0
16 21 51 106 111 0
19 24 59 64 69 0
16 21 56 61 76 0
19 24 59 64 84 0
16 21 56 61 101 0
19 24 59 64 124 0
19 24 59 69 79 0
19 24 59 69 119 0
18 23 58 73 88 0
18 23 58 73 123 0
19 24 59 79 84 0
16 21 56 76 86 0
16 21 56 76 111 0
19 24 59 79 124 0
18 23 58 83 88 0
19 24 59 84 119 0
18 23 58 83 123 0
16 21 56 86 101 0
18 23 58 88 118 0
16 21 56 101 111 0
18 23 58 118 123 0
19 24 59 119 124 0
17 22 62 67 72 0
17 22 62 67 77 0
19 24 64 69 99 0
17 22 62 67 107 0
19 24 64 69 114 0
17 22 62 72 97 0
17 22 62 72 102 0
16 21 61 76 81 0
17 22 62 77 97 0
17 22 62 77 102 0
16 21 61 76 106 0
19 24 64 84 99 0
16 21 61 81 101 0
19 24 64 84 114 0
17 22 62 97 107 0
19 24 64 99 124 0
16 21 61 101 106 0
17 22 62 102 107 0
19 24 64 114 124 0
17 22 67 72 92 0
17 22 67 72 122 0
17 22 67 77 92 0
19 24 69 79 99 0
19 24 69 79 114 0
17 22 67 77 122 0
17 22 67 92 107 0
19 24 69 99 119 0
17 22 67 107 122 0
19 24 69 114 119 0
18 23 73 88 93 0
18 23 73 88 103 0
17 22 72 92 97 0
17 22 72 92 102 0
18 23 73 93 123 0
17 22 72 97 122 0
17 22 72 102 122 0
18 23 73 103 123 0
16 21 76 81 86 0
19 24 79 84 99 0
16 21 76 81 111 0
19 24 79 84 114 0
16 21 76 86 106 0
17 22 77 92 97 0
17 22 77 92 102 0
17 22 77 97 122 0
19 24 79 99 124 0
17 22 77 102 122 0
16 21 76 106 111 0
19 24 79 114 124 0
18 23 83 88 93 0
16 21 81 86 101 0
18 23 83 88 103 0
18 23 83 93 123 0
19 24 84 99 119 0
16 21 81 101 111 0
18 23 83 103 123 0
19 24 84 114 119 0
18 23 88 93 118 0
16 21 86 101 106 0
18 23 88 103 118 0
17 22 92 97 107 0
17 22 92 102 107 0
18 23 93 118 123 0
17 22 97 107 122 0
19 24 99 119 124 0
16 21 101 106 111 0
17 22 102 107 122 0
18 23 103 118 123 0
19 24 114 119 124 0
17 27 32 37 42 0
16 26 31 36 46 0
16 26 31 36 71 0
17 27 32 37 72 0
17 27 32 37 77 0
16 26 31 36 96 0
17 27 32 37 107 0
16 26 31 36 121 0
17 27 32 42 67 0
17 27 32 42 97 0
17 27 32 42 102 0
16 26 31 46 61 0
16 26 31 46 86 0
16 26 31 46 111 0
16 26 31 61 71 0
16 26 31 61 96 0
16 26 31 61 121 0
17 27 32 67 72 0
17 27 32 67 77 0
17 27 32 67 107 0
16 26 31 71 86 0
17 27 32 72 97 0
17 27 32 72 102 0
16 26 31 71 111 0
17 27 32 77 97 0
17 27 32 77 102 0
16 26 31 86 96 0
16 26 31 86 121 0
17 27 32 97 107 0
16 26 31 96 111 0
17 27 32 102 107 0
16 26 31 111 121 0
19 29 39 44 49 0
17 27 37 42 62 0
19 29 39 44 64 0
19 29 39 44 79 0
17 27 37 42 92 0
19 29 39 44 119 0
17 27 37 42 122 0
16 26 36 46 56 0
19 29 39 49 59 0
16 26 36 46 81 0
19 29 39 49 99 0
16 26 36 46 106 0
19 29 39 49 114 0
19 29 39 59 64 0
16 26 36 56 71 0
19 29 39 59 79 0
16 26 36 56 96 0
19 29 39 59 119 0
16 26 36 56 121 0
17 27 37 62 72 0
17 27 37 62 77 0
19 29 39 64 99 0
17 27 37 62 107 0
19 29 39 64 114 0
16 26 36 71 81 0
17 27 37 72 92 0
16 26 36 71 106 0
17 27 37 72 122 0
17 27 37 77 92 0
19 29 39 79 99 0
19 29 39 79 114 0
17 27 37 77 122 0
16 26 36 81 96 0
16 26 36 81 121 0
17 27 37 92 107 0
16 26 36 96 106 0
19 29 39 99 119 0
16 26 36 106 121 0
17 27 37 107 122 0
19 29 39 114 119 0
19 29 44 49 54 0
19 29 44 49 94 0
19 29 44 49 109 0
19 29 44 54 64 0
19 29 44 54 79 0
19 29 44 54 119 0
17 27 42 62 67 0
19 29 44 64 94 0
17 27 42 62 97 0
17 27 42 62 102 0
19 29 44 64 109 0
17 27 42 67 92 0
17 27 42 67 122 0
19 29 44 79 94 0
19 29 44 79 109 0
17 27 42 92 97 0
17 27 42 92 102 0
19 29 44 94 119 0
17 27 42 97 122 0
17 27 42 102 122 0
19 29 44 109 119 0
19 29 49 54 59 0
19 29 49 54 99 0
19 29 49 54 114 0
16 26 46 56 61 0
16 26 46 56 86 0
19 29 49 59 94 0
19 29 49 59 109 0
16 26 46 56 111 0
16 26 46 61 81 0
16 26 46 61 106 0
16 26 46 81 86 0
16 26 46 81 111 0
16 26 46 86 106 0
19 29 49 94 99 0
19 29 49 94 114 0
19 29 49 99 109 0
16 26 46 106 111 0
19 29 49 109 114 0
19 29 54 59 64 0
19 29 54 59 79 0
19 29 54 59 119 0
19 29 54 64 99 0
19 29 54 64 114 0
19 29 54 79 99 0
19 29 54 79 114 0
20 30 55 85 110 0
20 30 55 90 105 0
19 29 54 99 119 0
19 29 54 114 119 0
16 26 56 61 71 0
19 29 59 64 94 0
16 26 56 61 96 0
19 29 59 64 109 0
16 26 56 61 121 0
16 26 56 71 86 0
16 26 56 71 111 0
19 29 59 79 94 0
19 29 59 79 109 0
16 26 56 86 96 0
16 26 56 86 121 0
19 29 59 94 119 0
16 26 56 96 111 0
19 29 59 109 119 0
16 26 56 111 121 0
17 27 62 67 72 0
17 27 62 67 77 0
17 27 62 67 107 0
16 26 61 71 81 0
17 27 62 72 97 0
17 27 62 72 102 0
16 26 61 71 106 0
17 27 62 77 97 0
17 27 62 77 102 0
16 26 61 81 96 0
16 26 61 81 121 0
20 30 65 90 120 0
19 29 64 94 99 0
19 29 64 94 114 0
16 26 61 96 106 0
17 27 62 97 107 0
19 29 64 99 109 0
20 30 65 100 110 0
17 27 62 102 107 0
19 29 64 109 114 0
16 26 61 106 121 0
17 27 67 72 92 0
17 27 67 72 122 0
17 27 67 77 92 0
17 27 67 77 122 0
20 30 70 85 120 0
17 27 67 92 107 0
20 30 70 100 105 0
17 27 67 107 122 0
16 26 71 81 86 0
16 26 71 81 111 0
16 26 71 86 106 0
17 27 72 92 97 0
17 27 72 92 102 0
17 27 72 97 122 0
17 27 72 102 122 0
16 26 71 106 111 0
17 27 77 92 97 0
19 29 79 94 99 0
17 27 77 92 102 0
19 29 79 94 114 0
19 29 79 99 109 0
17 27 77 97 122 0
17 27 77 102 122 0
19 29 79 109 114 0
16 26 81 86 96 0
16 26 81 86 121 0
16 26 81 96 111 0
16 26 81 111 121 0
16 26 86 96 106 0
16 26 86 106 121 0
17 27 92 97 107 0
19 29 94 99 119 0
17 27 92 102 107 0
19 29 94 114 119 0
16 26 96 106 111 0
19 29 99 109 119 0
17 27 97 107 122 0
17 27 102 107 122 0
19 29 109 114 119 0
16 26 106 111 121 0
18 33 38 43 48 0
17 32 37 42 57 0
18 33 38 43 58 0
17 32 37 42 87 0
18 33 38 43 93 0
18 33 38 43 103 0
17 32 37 42 117 0
16 31 36 46 51 0
18 33 38 48 53 0
16 31 36 46 76 0
18 33 38 48 88 0
16 31 36 46 101 0
18 33 38 48 123 0
18 33 38 53 58 0
16 31 36 51 71 0
18 33 38 53 93 0
16 31 36 51 96 0
18 33 38 53 103 0
16 31 36 51 121 0
17 32 37 57 72 0
17 32 37 57 77 0
18 33 38 58 88 0
17 32 37 57 107 0
18 33 38 58 123 0
16 31 36 71 76 0
17 32 37 72 87 0
16 31 36 71 101 0
17 32 37 72 117 0
17 32 37 77 87 0
16 31 36 76 96 0
17 32 37 77 117 0
16 31 36 76 121 0
18 33 38 88 93 0
18 33 38 88 103 0
17 32 37 87 107 0
18 33 38 93 123 0
16 31 36 96 101 0
16 31 36 101 121 0
18 33 38 103 123 0
17 32 37 107 117 0
18 33 43 48 73 0
18 33 43 48 83 0
18 33 43 48 118 0
17 32 42 57 67 0
18 33 43 58 73 0
18 33 43 58 83 0
17 32 42 57 97 0
17 32 42 57 102 0
18 33 43 58 118 0
17 32 42 67 87 0
17 32 42 67 117 0
18 33 43 73 93 0
18 33 43 73 103 0
18 33 43 83 93 0
18 33 43 83 103 0
17 32 42 87 97 0
17 32 42 87 102 0
18 33 43 93 118 0
17 32 42 97 117 0
17 32 42 102 117 0
18 33 43 103 118 0
16 31 46 51 61 0
18 33 48 53 73 0
18 33 48 53 83 0
16 31 46 51 86 0
16 31 46 51 111 0
18 33 48 53 118 0
16 31 46 61 76 0
16 31 46 61 101 0
18 33 48 73 88 0
18 33 48 73 123 0
16 31 46 76 86 0
16 31 46 76 111 0
18 33 48 83 88 0
18 33 48 83 123 0
16 31 46 86 101 0
18 33 48 88 118 0
16 31 46 101 111 0
18 33 48 118 123 0
18 33 53 58 73 0
18 33 53 58 83 0
18 33 53 58 118 0
16 31 51 61 71 0
16 31 51 61 96 0
16 31 51 61 121 0
16 31 51 71 86 0
18 33 53 73 93 0
18 33 53 73 103 0
16 31 51 71 111 0
18 33 53 83 93 0
18 33 53 83 103 0
16 31 51 86 96 0
16 31 51 86 121 0
18 33 53 93 118 0
16 31 51 96 111 0
18 33 53 103 118 0
16 31 51 111 121 0
17 32 57 67 72 0
17 32 57 67 77 0
17 32 57 67 107 0
18 33 58 73 88 0
17 32 57 72 97 0
17 32 57 72 102 0
18 33 58 73 123 0
17 32 57 77 97 0
17 32 57 77 102 0
18 33 58 83 88 0
18 33 58 83 123 0
18 33 58 88 118 0
17 32 57 97 107 0
17 32 57 102 107 0
18 33 58 118 123 0
16 31 61 71 76 0
16 31 61 71 101 0
16 31 61 76 96 0
16 31 61 76 121 0
20 35 65 90 115 0
20 35 65 95 110 0
16 31 61 96 101 0
16 31 61 101 121 0
17 32 67 72 87 0
17 32 67 72 117 0
17 32 67 77 87 0
17 32 67 77 117 0
20 35 70 85 115 0
17 32 67 87 107 0
20 35 70 95 105 0
17 32 67 107 117 0
16 31 71 76 86 0
16 31 71 76 111 0
20 35 75 85 110 0
18 33 73 88 93 0
17 32 72 87 97 0
16 31 71 86 101 0
17 32 72 87 102 0
18 33 73 88 103 0
20 35 75 90 105 0
18 33 73 93 123 0
17 32 72 97 117 0
16 31 71 101 111 0
17 32 72 102 117 0
18 33 73 103 123 0
16 31 76 86 96 0
17 32 77 87 97 0
17 32 77 87 102 0
16 31 76 86 121 0
16 31 76 96 111 0
17 32 77 97 117 0
17 32 77 102 117 0
16 31 76 111 121 0
18 33 83 88 93 0
18 33 83 88 103 0
18 33 83 93 123 0
18 33 83 103 123 0
18 33 88 93 118 0
16 31 86 96 101 0
17 32 87 97 107 0
17 32 87 102 107 0
18 33 88 103 118 0
16 31 86 101 121 0
18 33 93 118 123 0
16 31 96 101 111 0
17 32 97 107 117 0
17 32 102 107 117 0
16 31 101 111 121 0
18 33 103 118 123 0
18 38 43 48 68 0
19 39 44 49 69 0
18 38 43 48 78 0
19 39 44 49 84 0
18 38 43 48 113 0
19 39 44 49 124 0
17 37 42 57 62 0
18 38 43 58 68 0
18 38 43 58 78 0
17 37 42 57 92 0
18 38 43 58 113 0
17 37 42 57 122 0
19 39 44 64 69 0
19 39 44 64 84 0
17 37 42 62 87 0
17 37 42 62 117 0
19 39 44 64 124 0
19 39 44 69 79 0
18 38 43 68 93 0
18 38 43 68 103 0
19 39 44 69 119 0
19 39 44 79 84 0
18 38 43 78 93 0
18 38 43 78 103 0
19 39 44 79 124 0
19 39 44 84 119 0
17 37 42 87 92 0
17 37 42 87 122 0
18 38 43 93 113 0
17 37 42 92 117 0
18 38 43 103 113 0
17 37 42 117 122 0
19 39 44 119 124 0
16 36 46 51 56 0
18 38 48 53 68 0
18 38 48 53 78 0
16 36 46 51 81 0
16 36 46 51 106 0
18 38 48 53 113 0
19 39 49 59 69 0
16 36 46 56 76 0
19 39 49 59 84 0
16 36 46 56 101 0
19 39 49 59 124 0
18 38 48 68 88 0
19 39 49 69 99 0
19 39 49 69 114 0
18 38 48 68 123 0
16 36 46 76 81 0
18 38 48 78 88 0
16 36 46 76 106 0
18 38 48 78 123 0
19 39 49 84 99 0
16 36 46 81 101 0
19 39 49 84 114 0
18 38 48 88 113 0
19 39 49 99 124 0
16 36 46 101 106 0
18 38 48 113 123 0
19 39 49 114 124 0
18 38 53 58 68 0
16 36 51 56 71 0
18 38 53 58 78 0
16 36 51 56 96 0
18 38 53 58 113 0
16 36 51 56 121 0
18 38 53 68 93 0
18 38 53 68 103 0
16 36 51 71 81 0
16 36 51 71 106 0
18 38 53 78 93 0
18 38 53 78 103 0
16 36 51 81 96 0
16 36 51 81 121 0
18 38 53 93 113 0
16 36 51 96 106 0
18 38 53 103 113 0
16 36 51 106 121 0
19 39 59 64 69 0
17 37 57 62 72 0
17 37 57 62 77 0
19 39 59 64 84 0
17 37 57 62 107 0
19 39 59 64 124 0
19 39 59 69 79 0
18 38 58 68 88 0
19 39 59 69 119 0
18 38 58 68 123 0
16 36 56 71 76 0
17 37 57 72 92 0
16 36 56 71 101 0
17 37 57 72 122 0
19 39 59 79 84 0
18 38 58 78 88 0
17 37 57 77 92 0
16 36 56 76 96 0
16 36 56 76 121 0
17 37 57 77 122 0
18 38 58 78 123 0
19 39 59 79 124 0
19 39 59 84 119 0
18 38 58 88 113 0
17 37 57 92 107 0
16 36 56 96 101 0
16 36 56 101 121 0
17 37 57 107 122 0
18 38 58 113 123 0
19 39 59 119 124 0
19 39 64 69 99 0
19 39 64 69 114 0
17 37 62 72 87 0
17 37 62 72 117 0
17 37 62 77 87 0
17 37 62 77 117 0
19 39 64 84 99 0
19 39 64 84 114 0
17 37 62 87 107 0
19 39 64 99 124 0
17 37 62 107 117 0
19 39 64 114 124 0
19 39 69 79 99 0
19 39 69 79 114 0
18 38 68 88 93 0
18 38 68 88 103 0
18 38 68 93 123 0
19 39 69 99 119 0
18 38 68 103 123 0
19 39 69 114 119 0
16 36 71 76 81 0
16 36 71 76 106 0
16 36 71 81 101 0
17 37 72 87 92 0
17 37 72 87 122 0
17 37 72 92 117 0
16 36 71 101 106 0
17 37 72 117 122 0
16 36 76 81 96 0
19 39 79 84 99 0
19 39 79 84 114 0
16 36 76 81 121 0
17 37 77 87 92 0
18 38 78 88 93 0
18 38 78 88 103 0
17 37 77 87 122 0
17 37 77 92 117 0
18 38 78 93 123 0
16 36 76 96 106 0
19 39 79 99 124 0
18 38 78 103 123 0
16 36 76 106 121 0
19 39 79 114 124 0
17 37 77 117 122 0
16 36 81 96 101 0
19 39 84 99 119 0
16 36 81 101 121 0
19 39 84 114 119 0
17 37 87 92 107 0
18 38 88 93 113 0
18 38 88 103 113 0
17 37 87 107 122 0
17 37 92 107 117 0
18 38 93 113 123 0
16 36 96 101 106 0
19 39 99 119 124 0
16 36 101 106 121 0
18 38 103 113 123 0
17 37 107 117 122 0
19 39 114 119 124 0
19 44 49 54 69 0
19 44 49 54 84 0
19 44 49 54 124 0
18 43 48 68 73 0
18 43 48 68 83 0
19 44 49 69 94 0
19 44 49 69 109 0
18 43 48 68 118 0
18 43 48 73 78 0
18 43 48 73 113 0
18 43 48 78 83 0
18 43 48 78 118 0
19 44 49 84 94 0
19 44 49 84 109 0
18 43 48 83 113 0
19 44 49 94 124 0
19 44 49 109 124 0
18 43 48 113 118 0
19 44 54 64 69 0
19 44 54 64 84 0
19 44 54 64 124 0
19 44 54 69 79 0
19 44 54 69 119 0
19 44 54 79 84 0
19 44 54 79 124 0
19 44 54 84 119 0
20 45 55 90 115 0
20 45 55 95 110 0
19 44 54 119 124 0
17 42 57 62 67 0
17 42 57 62 97 0
17 42 57 62 102 0
18 43 58 68 73 0
18 43 58 68 83 0
17 42 57 67 92 0
18 43 58 68 118 0
17 42 57 67 122 0
18 43 58 73 78 0
18 43 58 73 113 0
18 43 58 78 83 0
18 43 58 78 118 0
18 43 58 83 113 0
17 42 57 92 97 0
17 42 57 92 102 0
17 42 57 97 122 0
17 42 57 102 122 0
18 43 58 113 118 0
17 42 62 67 87 0
19 44 64 69 94 0
19 44 64 69 109 0
17 42 62 67 117 0
19 44 64 84 94 0
19 44 64 84 109 0
17 42 62 87 97 0
17 42 62 87 102 0
19 44 64 94 124 0
17 42 62 97 117 0
17 42 62 102 117 0
19 44 64 109 124 0
18 43 68 73 93 0
18 43 68 73 103 0
19 44 69 79 94 0
19 44 69 79 109 0
18 43 68 83 93 0
18 43 68 83 103 0
17 42 67 87 92 0
17 42 67 87 122 0
17 42 67 92 117 0
18 43 68 93 118 0
19 44 69 94 119 0
20 45 70 95 120 0
20 45 70 100 115 0
18 43 68 103 118 0
19 44 69 109 119 0
17 42 67 117 122 0
18 43 73 78 93 0
18 43 73 78 103 0
20 45 75 90 120 0
18 43 73 93 113 0
20 45 75 100 110 0
18 43 73 103 113 0
18 43 78 83 93 0
19 44 79 84 94 0
18 43 78 83 103 0
19 44 79 84 109 0
18 43 78 93 118 0
19 44 79 94 124 0
18 43 78 103 118 0
19 44 79 109 124 0
18 43 83 93 113 0
19 44 84 94 119 0
18 43 83 103 113 0
19 44 84 109 119 0
17 42 87 92 97 0
17 42 87 92 102 0
17 42 87 97 122 0
17 42 87 102 122 0
17 42 92 97 117 0
17 42 92 102 117 0
18 43 93 113 118 0
19 44 94 119 124 0
17 42 97 117 122 0
18 43 103 113 118 0
17 42 102 117 122 0
19 44 109 119 124 0
16 46 51 56 61 0
19 49 54 59 69 0
19 49 54 59 84 0
16 46 51 56 86 0
16 46 51 56 111 0
19 49 54 59 124 0
16 46 51 61 81 0
16 46 51 61 106 0
18 48 53 68 73 0
18 48 53 68 83 0
19 49 54 69 99 0
19 49 54 69 114 0
18 48 53 68 118 0
18 48 53 73 78 0
18 48 53 73 113 0
18 48 53 78 83 0
18 48 53 78 118 0
16 46 51 81 86 0
19 49 54 84 99 0
16 46 51 81 111 0
18 48 53 83 113 0
19 49 54 84 114 0
20 50 55 85 115 0
16 46 51 86 106 0
20 50 55 95 105 0
19 49 54 99 124 0
16 46 51 106 111 0
18 48 53 113 118 0
19 49 54 114 124 0
16 46 56 61 76 0
16 46 56 61 101 0
19 49 59 69 94 0
19 49 59 69 109 0
16 46 56 76 86 0
16 46 56 76 111 0
19 49 59 84 94 0
19 49 59 84 109 0
16 46 56 86 101 0
19 49 59 94 124 0
16 46 56 101 111 0
19 49 59 109 124 0
16 46 61 76 81 0
16 46 61 76 106 0
16 46 61 81 101 0
20 50 65 95 120 0
20 50 65 100 115 0
16 46 61 101 106 0
18 48 68 73 88 0
18 48 68 73 123 0
18 48 68 83 88 0
18 48 68 83 123 0
18 48 68 88 118 0
19 49 69 94 99 0
19 49 69 94 114 0
19 49 69 99 109 0
19 49 69 109 114 0
18 48 68 118 123 0
18 48 73 78 88 0
18 48 73 78 123 0
20 50 75 85 120 0
18 48 73 88 113 0
20 50 75 100 105 0
18 48 73 113 123 0
16 46 76 81 86 0
18 48 78 83 88 0
16 46 76 81 111 0
18 48 78 83 123 0
16 46 76 86 106 0
18 48 78 88 118 0
16 46 76 106 111 0
18 48 78 118 123 0
16 46 81 86 101 0
18 48 83 88 113 0
19 49 84 94 99 0
19 49 84 94 114 0
19 49 84 99 109 0
16 46 81 101 111 0
19 49 84 109 114 0
18 48 83 113 123 0
16 46 86 101 106 0
18 48 88 113 118 0
19 49 94 99 124 0
19 49 94 114 124 0
19 49 99 109 124 0
16 46 101 106 111 0
19 49 109 114 124 0
18 48 113 118 123 0
19 54 59 64 69 0
16 51 56 61 71 0
19 54 59 64 84 0
16 51 56 61 96 0
16 51 56 61 121 0
19 54 59 64 124 0
18 53 58 68 73 0
19 54 59 69 79 0
18 53 58 68 83 0
18 53 58 68 118 0
19 54 59 69 119 0
18 53 58 73 78 0
16 51 56 71 86 0
16 51 56 71 111 0
18 53 58 73 113 0
18 53 58 78 83 0
19 54 59 79 84 0
18 53 58 78 118 0
19 54 59 79 124 0
18 53 58 83 113 0
19 54 59 84 119 0
16 51 56 86 96 0
16 51 56 86 121 0
16 51 56 96 111 0
18 53 58 113 118 0
16 51 56 111 121 0
19 54 59 119 124 0
19 54 64 69 99 0
19 54 64 69 114 0
16 51 61 71 81 0
16 51 61 71 106 0
16 51 61 81 96 0
19 54 64 84 99 0
19 54 64 84 114 0
16 51 61 81 121 0
16 51 61 96 106 0
19 54 64 99 124 0
16 51 61 106 121 0
19 54 64 114 124 0
18 53 68 73 93 0
18 53 68 73 103 0
19 54 69 79 99 0
19 54 69 79 114 0
18 53 68 83 93 0
18 53 68 83 103 0
18 53 68 93 118 0
19 54 69 99 119 0
18 53 68 103 118 0
19 54 69 114 119 0
18 53 73 78 93 0
18 53 73 78 103 0
16 51 71 81 86 0
16 51 71 81 111 0
16 51 71 86 106 0
18 53 73 93 113 0
18 53 73 103 113 0
16 51 71 106 111 0
18 53 78 83 93 0
19 54 79 84 99 0
18 53 78 83 103 0
19 54 79 84 114 0
18 53 78 93 118 0
19 54 79 99 124 0
18 53 78 103 118 0
19 54 79 114 124 0
16 51 81 86 96 0
16 51 81 86 121 0
18 53 83 93 113 0
16 51 81 96 111 0
19 54 84 99 119 0
18 53 83 103 113 0
19 54 84 114 119 0
16 51 81 111 121 0
16 51 86 96 106 0
16 51 86 106 121 0
18 53 93 113 118 0
16 51 96 106 111 0
19 54 99 119 124 0
18 53 103 113 118 0
16 51 106 111 121 0
19 54 114 119 124 0
17 57 62 67 72 0
17 57 62 67 77 0
19 59 64 69 94 0
17 57 62 67 107 0
19 59 64 69 109 0
16 56 61 71 76 0
17 57 62 72 97 0
16 56 61 71 101 0
17 57 62 72 102 0
16 56 61 76 96 0
17 57 62 77 97 0
17 57 62 77 102 0
16 56 61 76 121 0
19 59 64 84 94 0
19 59 64 84 109 0
19 59 64 94 124 0
16 56 61 96 101 0
17 57 62 97 107 0
17 57 62 102 107 0
16 56 61 101 121 0
19 59 64 109 124 0
18 58 68 73 88 0
17 57 67 72 92 0
17 57 67 72 122 0
18 58 68 73 123 0
17 57 67 77 92 0
19 59 69 79 94 0
19 59 69 79 109 0
17 57 67 77 122 0
18 58 68 83 88 0
18 58 68 83 123 0
18 58 68 88 118 0
17 57 67 92 107 0
19 59 69 94 119 0
19 59 69 109 119 0
17 57 67 107 122 0
18 58 68 118 123 0
16 56 71 76 86 0
18 58 73 78 88 0
16 56 71 76 111 0
18 58 73 78 123 0
16 56 71 86 101 0
18 58 73 88 113 0
17 57 72 92 97 0
17 57 72 92 102 0
17 57 72 97 122 0
16 56 71 101 111 0
17 57 72 102 122 0
18 58 73 113 123 0
18 58 78 83 88 0
19 59 79 84 94 0
19 59 79 84 109 0
18 58 78 83 123 0
16 56 76 86 96 0
18 58 78 88 118 0
16 56 76 86 121 0
17 57 77 92 97 0
17 57 77 92 102 0
19 59 79 94 124 0
16 56 76 96 111 0
17 57 77 97 122 0
17 57 77 102 122 0
19 59 79 109 124 0
16 56 76 111 121 0
18 58 78 118 123 0
18 58 83 88 113 0
19 59 84 94 119 0
19 59 84 109 119 0
18 58 83 113 123 0
16 56 86 96 101 0
16 56 86 101 121 0
18 58 88 113 118 0
17 57 92 97 107 0
17 57 92 102 107 0
19 59 94 119 124 0
16 56 96 101 111 0
17 57 97 107 122 0
17 57 102 107 122 0
16 56 101 111 121 0
19 59 109 119 124 0
18 58 113 118 123 0
17 62 67 72 87 0
17 62 67 72 117 0
17 62 67 77 87 0
17 62 67 77 117 0
17 62 67 87 107 0
19 64 69 94 99 0
19 64 69 94 114 0
19 64 69 99 109 0
19 64 69 109 114 0
17 62 67 107 117 0
16 61 71 76 81 0
16 61 71 76 106 0
16 61 71 81 101 0
17 62 72 87 97 0
17 62 72 87 102 0
17 62 72 97 117 0
16 61 71 101 106 0
17 62 72 102 117 0
16 61 76 81 96 0
16 61 76 81 121 0
17 62 77 87 97 0
17 62 77 87 102 0
16 61 76 96 106 0
17 62 77 97 117 0
17 62 77 102 117 0
16 61 76 106 121 0
19 64 84 94 99 0
19 64 84 94 114 0
16 61 81 96 101 0
19 64 84 99 109 0
16 61 81 101 121 0
19 64 84 109 114 0
17 62 87 97 107 0
17 62 87 102 107 0
19 64 94 99 124 0
19 64 94 114 124 0
16 61 96 101 106 0
17 62 97 107 117 0
19 64 99 109 124 0
17 62 102 107 117 0
16 61 101 106 121 0
19 64 109 114 124 0
17 67 72 87 92 0
18 68 73 88 93 0
18 68 73 88 103 0
17 67 72 87 122 0
17 67 72 92 117 0
18 68 73 93 123 0
18 68 73 103 123 0
17 67 72 117 122 0
17 67 77 87 92 0
17 67 77 87 122 0
19 69 79 94 99 0
19 69 79 94 114 0
17 67 77 92 117 0
19 69 79 99 109 0
19 69 79 109 114 0
17 67 77 117 122 0
18 68 83 88 93 0
18 68 83 88 103 0
18 68 83 93 123 0
18 68 83 103 123 0
17 67 87 92 107 0
18 68 88 93 118 0
18 68 88 103 118 0
17 67 87 107 122 0
19 69 94 99 119 0
17 67 92 107 117 0
19 69 94 114 119 0
18 68 93 118 123 0
19 69 99 109 119 0
18 68 103 118 123 0
19 69 109 114 119 0
17 67 107 117 122 0
16 71 76 81 86 0
16 71 76 81 111 0
18 73 78 88 93 0
18 73 78 88 103 0
16 71 76 86 106 0
18 73 78 93 123 0
18 73 78 103 123 0
16 71 76 106 111 0
16 71 81 86 101 0
16 71 81 101 111 0
17 72 87 92 97 0
17 72 87 92 102 0
18 73 88 93 113 0
17 72 87 97 122 0
16 71 86 101 106 0
18 73 88 103 113 0
17 72 87 102 122 0
17 72 92 97 117 0
17 72 92 102 117 0
18 73 93 113 123 0
17 72 97 117 122 0
16 71 101 106 111 0
18 73 103 113 123 0
17 72 102 117 122 0
18 78 83 88 93 0
16 76 81 86 96 0
18 78 83 88 103 0
16 76 81 86 121 0
19 79 84 94 99 0
19 79 84 94 114 0
18 78 83 93 123 0
19 79 84 99 109 0
16 76 81 96 111 0
18 78 83 103 123 0
19 79 84 109 114 0
16 76 81 111 121 0
17 77 87 92 97 0
17 77 87 92 102 0
18 78 88 93 118 0
16 76 86 96 106 0
17 77 87 97 122 0
18 78 88 103 118 0
17 77 87 102 122 0
16 76 86 106 121 0
17 77 92 97 117 0
19 79 94 99 124 0
17 77 92 102 117 0
19 79 94 114 124 0
18 78 93 118 123 0
16 76 96 106 111 0
19 79 99 109 124 0
17 77 97 117 122 0
17 77 102 117 122 0
18 78 103 118 123 0
16 76 106 111 121 0
19 79 109 114 124 0
18 83 88 93 113 0
16 81 86 96 101 0
18 83 88 103 113 0
16 81 86 101 121 0
19 84 94 99 119 0
19 84 94 114 119 0
18 83 93 113 123 0
16 81 96 101 111 0
19 84 99 109 119 0
16 81 101 111 121 0
18 83 103 113 123 0
19 84 109 114 119 0
17 87 92 97 107 0
17 87 92 102 107 0
18 88 93 113 118 0
16 86 96 101 106 0
17 87 97 107 122 0
16 86 101 106 121 0
17 87 102 107 122 0
18 88 103 113 118 0
17 92 97 107 117 0
19 94 99 119 124 0
17 92 102 107 117 0
18 93 113 118 123 0
19 94 114 119 124 0
16 96 101 106 111 0
17 97 107 117 122 0
19 99 109 119 124 0
16 101 106 111 121 0
17 102 107 117 122 0
18 103 113 118 123 0
19 109 114 119 124 0
21 26 31 36 41 0
21 26 31 36 66 0
21 26 31 36 91 0
21 26 31 36 116 0
24 29 34 44 49 0
21 26 31 41 61 0
24 29 34 44 64 0
24 29 34 44 79 0
21 26 31 41 86 0
21 26 31 41 111 0
24 29 34 44 119 0
24 29 34 49 59 0
24 29 34 49 99 0
24 29 34 49 114 0
24 29 34 59 64 0
24 29 34 59 79 0
24 29 34 59 119 0
21 26 31 61 66 0
21 26 31 61 91 0
24 29 34 64 99 0
24 29 34 64 114 0
21 26 31 61 116 0
21 26 31 66 86 0
21 26 31 66 111 0
24 29 34 79 99 0
24 29 34 79 114 0
21 26 31 86 91 0
21 26 31 86 116 0
21 26 31 91 111 0
24 29 34 99 119 0
21 26 31 111 116 0
24 29 34 114 119 0
23 28 38 43 48 0
21 26 36 41 56 0
23 28 38 43 58 0
21 26 36 41 81 0
23 28 38 43 93 0
23 28 38 43 103 0
21 26 36 41 106 0
23 28 38 48 53 0
23 28 38 48 88 0
23 28 38 48 123 0
23 28 38 53 58 0
23 28 38 53 93 0
23 28 38 53 103 0
21 26 36 56 66 0
23 28 38 58 88 0
21 26 36 56 91 0
21 26 36 56 116 0
23 28 38 58 123 0
21 26 36 66 81 0
21 26 36 66 106 0
21 26 36 81 91 0
21 26 36 81 116 0
23 28 38 88 93 0
23 28 38 88 103 0
21 26 36 91 106 0
23 28 38 93 123 0
23 28 38 103 123 0
21 26 36 106 116 0
23 28 43 48 73 0
24 29 44 49 74 0
23 28 43 48 83 0
24 29 44 49 89 0
24 29 44 49 104 0
23 28 43 48 118 0
21 26 41 56 61 0
23 28 43 58 73 0
23 28 43 58 83 0
21 26 41 56 86 0
21 26 41 56 111 0
23 28 43 58 118 0
24 29 44 64 74 0
21 26 41 61 81 0
24 29 44 64 89 0
24 29 44 64 104 0
21 26 41 61 106 0
24 29 44 74 79 0
23 28 43 73 93 0
23 28 43 73 103 0
24 29 44 74 119 0
24 29 44 79 89 0
24 29 44 79 104 0
21 26 41 81 86 0
23 28 43 83 93 0
23 28 43 83 103 0
21 26 41 81 111 0
21 26 41 86 106 0
24 29 44 89 119 0
23 28 43 93 118 0
23 28 43 103 118 0
24 29 44 104 119 0
21 26 41 106 111 0
23 28 48 53 73 0
23 28 48 53 83 0
23 28 48 53 118 0
24 29 49 59 74 0
24 29 49 59 89 0
24 29 49 59 104 0
23 28 48 73 88 0
24 29 49 74 99 0
24 29 49 74 114 0
23 28 48 73 123 0
23 28 48 83 88 0
23 28 48 83 123 0
24 29 49 89 99 0
24 29 49 89 114 0
23 28 48 88 118 0
24 29 49 99 104 0
24 29 49 104 114 0
23 28 48 118 123 0
23 28 53 58 73 0
23 28 53 58 83 0
23 28 53 58 118 0
23 28 53 73 93 0
23 28 53 73 103 0
25 30 55 80 110 0
23 28 53 83 93 0
23 28 53 83 103 0
25 30 55 90 125 0
23 28 53 93 118 0
23 28 53 103 118 0
21 26 56 61 66 0
24 29 59 64 74 0
24 29 59 64 89 0
21 26 56 61 91 0
24 29 59 64 104 0
21 26 56 61 116 0
21 26 56 66 86 0
21 26 56 66 111 0
24 29 59 74 79 0
23 28 58 73 88 0
24 29 59 74 119 0
23 28 58 73 123 0
24 29 59 79 89 0
24 29 59 79 104 0
23 28 58 83 88 0
23 28 58 83 123 0
21 26 56 86 91 0
21 26 56 86 116 0
23 28 58 88 118 0
24 29 59 89 119 0
25 30 60 90 120 0
21 26 56 91 111 0
25 30 60 100 110 0
24 29 59 104 119 0
21 26 56 111 116 0
23 28 58 118 123 0
21 26 61 66 81 0
21 26 61 66 106 0
24 29 64 74 99 0
24 29 64 74 114 0
21 26 61 81 91 0
21 26 61 81 116 0
24 29 64 89 99 0
24 29 64 89 114 0
21 26 61 91 106 0
24 29 64 99 104 0
24 29 64 104 114 0
21 26 61 106 116 0
25 30 70 80 120 0
21 26 66 81 86 0
21 26 66 81 111 0
21 26 66 86 106 0
25 30 70 100 125 0
21 26 66 106 111 0
24 29 74 79 99 0
24 29 74 79 114 0
23 28 73 88 93 0
23 28 73 88 103 0
23 28 73 93 123 0
24 29 74 99 119 0
23 28 73 103 123 0
24 29 74 114 119 0
24 29 79 89 99 0
24 29 79 89 114 0
24 29 79 99 104 0
24 29 79 104 114 0
21 26 81 86 91 0
23 28 83 88 93 0
23 28 83 88 103 0
21 26 81 86 116 0
21 26 81 91 111 0
23 28 83 93 123 0
23 28 83 103 123 0
21 26 81 111 116 0
21 26 86 91 106 0
23 28 88 93 118 0
24 29 89 99 119 0
23 28 88 103 118 0
21 26 86 106 116 0
24 29 89 114 119 0
21 26 91 106 111 0
23 28 93 118 123 0
24 29 99 104 119 0
24 29 104 114 119 0
23 28 103 118 123 0
21 26 106 111 116 0
22 32 37 42 47 0
21 31 36 41 51 0
22 32 37 42 52 0
21 31 36 41 76 0
22 32 37 42 82 0
21 31 36 41 101 0
22 32 37 42 112 0
22 32 37 47 72 0
22 32 37 47 77 0
22 32 37 47 107 0
21 31 36 51 66 0
22 32 37 52 72 0
22 32 37 52 77 0
21 31 36 51 91 0
22 32 37 52 107 0
21 31 36 51 116 0
21 31 36 66 76 0
21 31 36 66 101 0
22 32 37 72 82 0
22 32 37 72 112 0
22 32 37 77 82 0
21 31 36 76 91 0
22 32 37 77 112 0
21 31 36 76 116 0
22 32 37 82 107 0
21 31 36 91 101 0
21 31 36 101 116 0
22 32 37 107 112 0
22 32 42 47 67 0
24 34 44 49 69 0
24 34 44 49 84 0
22 32 42 47 97 0
22 32 42 47 102 0
24 34 44 49 124 0
21 31 41 51 61 0
22 32 42 52 67 0
21 31 41 51 86 0
22 32 42 52 97 0
22 32 42 52 102 0
21 31 41 51 111 0
24 34 44 64 69 0
21 31 41 61 76 0
24 34 44 64 84 0
21 31 41 61 101 0
24 34 44 64 124 0
24 34 44 69 79 0
22 32 42 67 82 0
22 32 42 67 112 0
24 34 44 69 119 0
24 34 44 79 84 0
21 31 41 76 86 0
21 31 41 76 111 0
24 34 44 79 124 0
22 32 42 82 97 0
22 32 42 82 102 0
24 34 44 84 119 0
21 31 41 86 101 0
22 32 42 97 112 0
21 31 41 101 111 0
22 32 42 102 112 0
24 34 44 119 124 0
24 34 49 59 69 0
24 34 49 59 84 0
24 34 49 59 124 0
22 32 47 67 72 0
22 32 47 67 77 0
24 34 49 69 99 0
22 32 47 67 107 0
24 34 49 69 114 0
22 32 47 72 97 0
22 32 47 72 102 0
22 32 47 77 97 0
22 32 47 77 102 0
24 34 49 84 99 0
24 34 49 84 114 0
22 32 47 97 107 0
24 34 49 99 124 0
22 32 47 102 107 0
24 34 49 114 124 0
21 31 51 61 66 0
21 31 51 61 91 0
21 31 51 61 116 0
22 32 52 67 72 0
22 32 52 67 77 0
21 31 51 66 86 0
22 32 52 67 107 0
21 31 51 66 111 0
22 32 52 72 97 0
22 32 52 72 102 0
22 32 52 77 97 0
22 32 52 77 102 0
21 31 51 86 91 0
21 31 51 86 116 0
21 31 51 91 111 0
22 32 52 97 107 0
22 32 52 102 107 0
21 31 51 111 116 0
24 34 59 64 69 0
24 34 59 64 84 0
24 34 59 64 124 0
24 34 59 69 79 0
24 34 59 69 119 0
24 34 59 79 84 0
24 34 59 79 124 0
24 34 59 84 119 0
25 35 60 90 115 0
25 35 60 95 110 0
24 34 59 119 124 0
21 31 61 66 76 0
24 34 64 69 99 0
21 31 61 66 101 0
24 34 64 69 114 0
21 31 61 76 91 0
21 31 61 76 116 0
24 34 64 84 99 0
24 34 64 84 114 0
21 31 61 91 101 0
24 34 64 99 124 0
21 31 61 101 116 0
24 34 64 114 124 0
22 32 67 72 82 0
22 32 67 72 112 0
22 32 67 77 82 0
21 31 66 76 86 0
24 34 69 79 99 0
21 31 66 76 111 0
22 32 67 77 112 0
24 34 69 79 114 0
25 35 70 80 115 0
22 32 67 82 107 0
21 31 66 86 101 0
25 35 70 95 125 0
24 34 69 99 119 0
21 31 66 101 111 0
22 32 67 107 112 0
24 34 69 114 119 0
25 35 75 80 110 0
22 32 72 82 97 0
22 32 72 82 102 0
25 35 75 90 125 0
22 32 72 97 112 0
22 32 72 102 112 0
22 32 77 82 97 0
24 34 79 84 99 0
22 32 77 82 102 0
24 34 79 84 114 0
21 31 76 86 91 0
21 31 76 86 116 0
21 31 76 91 111 0
22 32 77 97 112 0
24 34 79 99 124 0
22 32 77 102 112 0
21 31 76 111 116 0
24 34 79 114 124 0
22 32 82 97 107 0
24 34 84 99 119 0
22 32 82 102 107 0
24 34 84 114 119 0
21 31 86 91 101 0
21 31 86 101 116 0
21 31 91 101 111 0
22 32 97 107 112 0
24 34 99 119 124 0
22 32 102 107 112 0
21 31 101 111 116 0
24 34 114 119 124 0
22 37 42 47 62 0
23 38 43 48 63 0
22 37 42 47 92 0
23 38 43 48 98 0
23 38 43 48 108 0
22 37 42 47 122 0
21 36 41 51 56 0
22 37 42 52 62 0
21 36 41 51 81 0
22 37 42 52 92 0
21 36 41 51 106 0
22 37 42 52 122 0
23 38 43 58 63 0
21 36 41 56 76 0
23 38 43 58 98 0
21 36 41 56 101 0
23 38 43 58 108 0
22 37 42 62 82 0
23 38 43 63 93 0
23 38 43 63 103 0
22 37 42 62 112 0
21 36 41 76 81 0
21 36 41 76 106 0
22 37 42 82 92 0
21 36 41 81 101 0
22 37 42 82 122 0
23 38 43 93 98 0
23 38 43 93 108 0
22 37 42 92 112 0
23 38 43 98 103 0
21 36 41 101 106 0
23 38 43 103 108 0
22 37 42 112 122 0
23 38 48 53 63 0
23 38 48 53 98 0
23 38 48 53 108 0
22 37 47 62 72 0
22 37 47 62 77 0
23 38 48 63 88 0
22 37 47 62 107 0
23 38 48 63 123 0
22 37 47 72 92 0
22 37 47 72 122 0
22 37 47 77 92 0
22 37 47 77 122 0
23 38 48 88 98 0
23 38 48 88 108 0
22 37 47 92 107 0
23 38 48 98 123 0
22 37 47 107 122 0
23 38 48 108 123 0
23 38 53 58 63 0
21 36 51 56 66 0
21 36 51 56 91 0
23 38 53 58 98 0
23 38 53 58 108 0
21 36 51 56 116 0
22 37 52 62 72 0
22 37 52 62 77 0
23 38 53 63 93 0
23 38 53 63 103 0
22 37 52 62 107 0
21 36 51 66 81 0
21 36 51 66 106 0
22 37 52 72 92 0
22 37 52 72 122 0
22 37 52 77 92 0
22 37 52 77 122 0
21 36 51 81 91 0
21 36 51 81 116 0
25 40 55 90 115 0
23 38 53 93 98 0
21 36 51 91 106 0
22 37 52 92 107 0
23 38 53 93 108 0
25 40 55 95 110 0
23 38 53 98 103 0
23 38 53 103 108 0
21 36 51 106 116 0
22 37 52 107 122 0
23 38 58 63 88 0
23 38 58 63 123 0
21 36 56 66 76 0
21 36 56 66 101 0
21 36 56 76 91 0
21 36 56 76 116 0
23 38 58 88 98 0
23 38 58 88 108 0
21 36 56 91 101 0
23 38 58 98 123 0
21 36 56 101 116 0
23 38 58 108 123 0
22 37 62 72 82 0
22 37 62 72 112 0
22 37 62 77 82 0
22 37 62 77 112 0
22 37 62 82 107 0
23 38 63 88 93 0
23 38 63 88 103 0
23 38 63 93 123 0
23 38 63 103 123 0
22 37 62 107 112 0
21 36 66 76 81 0
21 36 66 76 106 0
21 36 66 81 101 0
25 40 70 95 120 0
25 40 70 100 115 0
21 36 66 101 106 0
22 37 72 82 92 0
22 37 72 82 122 0
25 40 75 90 120 0
22 37 72 92 112 0
25 40 75 100 110 0
22 37 72 112 122 0
21 36 76 81 91 0
22 37 77 82 92 0
21 36 76 81 116 0
22 37 77 82 122 0
21 36 76 91 106 0
22 37 77 92 112 0
21 36 76 106 116 0
22 37 77 112 122 0
21 36 81 91 101 0
22 37 82 92 107 0
21 36 81 101 116 0
22 37 82 107 122 0
23 38 88 93 98 0
23 38 88 93 108 0
23 38 88 98 103 0
23 38 88 103 108 0
23 38 93 98 123 0
21 36 91 101 106 0
22 37 92 107 112 0
23 38 93 108 123 0
23 38 98 103 123 0
21 36 101 106 116 0
23 38 103 108 123 0
22 37 107 112 122 0
22 42 47 62 67 0
23 43 48 63 73 0
23 43 48 63 83 0
22 42 47 62 97 0
22 42 47 62 102 0
23 43 48 63 118 0
24 44 49 69 74 0
24 44 49 69 89 0
22 42 47 67 92 0
24 44 49 69 104 0
22 42 47 67 122 0
24 44 49 74 84 0
23 43 48 73 98 0
23 43 48 73 108 0
24 44 49 74 124 0
24 44 49 84 89 0
23 43 48 83 98 0
24 44 49 84 104 0
23 43 48 83 108 0
24 44 49 89 124 0
22 42 47 92 97 0
22 42 47 92 102 0
23 43 48 98 118 0
22 42 47 97 122 0
22 42 47 102 122 0
24 44 49 104 124 0
23 43 48 108 118 0
21 41 51 56 61 0
21 41 51 56 86 0
21 41 51 56 111 0
22 42 52 62 67 0
21 41 51 61 81 0
22 42 52 62 97 0
22 42 52 62 102 0
21 41 51 61 106 0
22 42 52 67 92 0
22 42 52 67 122 0
21 41 51 81 86 0
21 41 51 81 111 0
21 41 51 86 106 0
22 42 52 92 97 0
22 42 52 92 102 0
22 42 52 97 122 0
22 42 52 102 122 0
21 41 51 106 111 0
23 43 58 63 73 0
21 41 56 61 76 0
23 43 58 63 83 0
21 41 56 61 101 0
23 43 58 63 118 0
23 43 58 73 98 0
23 43 58 73 108 0
21 41 56 76 86 0
21 41 56 76 111 0
23 43 58 83 98 0
23 43 58 83 108 0
21 41 56 86 101 0
23 43 58 98 118 0
21 41 56 101 111 0
23 43 58 108 118 0
24 44 64 69 74 0
22 42 62 67 82 0
24 44 64 69 89 0
24 44 64 69 104 0
22 42 62 67 112 0
24 44 64 74 84 0
23 43 63 73 93 0
23 43 63 73 103 0
24 44 64 74 124 0
21 41 61 76 81 0
21 41 61 76 106 0
24 44 64 84 89 0
23 43 63 83 93 0
22 42 62 82 97 0
21 41 61 81 101 0
22 42 62 82 102 0
23 43 63 83 103 0
24 44 64 84 104 0
24 44 64 89 124 0
23 43 63 93 118 0
22 42 62 97 112 0
21 41 61 101 106 0
22 42 62 102 112 0
23 43 63 103 118 0
24 44 64 104 124 0
24 44 69 74 79 0
24 44 69 74 119 0
24 44 69 79 89 0
24 44 69 79 104 0
22 42 67 82 92 0
22 42 67 82 122 0
24 44 69 89 119 0
22 42 67 92 112 0
24 44 69 104 119 0
22 42 67 112 122 0
24 44 74 79 84 0
24 44 74 79 124 0
24 44 74 84 119 0
23 43 73 93 98 0
23 43 73 93 108 0
23 43 73 98 103 0
23 43 73 103 108 0
24 44 74 119 124 0
21 41 76 81 86 0
24 44 79 84 89 0
24 44 79 84 104 0
21 41 76 81 111 0
21 41 76 86 106 0
24 44 79 89 124 0
24 44 79 104 124 0
21 41 76 106 111 0
21 41 81 86 101 0
24 44 84 89 119 0
22 42 82 92 97 0
23 43 83 93 98 0
22 42 82 92 102 0
23 43 83 93 108 0
23 43 83 98 103 0
22 42 82 97 122 0
23 43 83 103 108 0
21 41 81 101 111 0
24 44 84 104 119 0
22 42 82 102 122 0
21 41 86 101 106 0
24 44 89 119 124 0
22 42 92 97 112 0
23 43 93 98 118 0
22 42 92 102 112 0
23 43 93 108 118 0
23 43 98 103 118 0
22 42 97 112 122 0
21 41 101 106 111 0
23 43 103 108 118 0
22 42 102 112 122 0
24 44 104 119 124 0
23 48 53 63 73 0
23 48 53 63 83 0
23 48 53 63 118 0
23 48 53 73 98 0
23 48 53 73 108 0
25 50 55 80 115 0
23 48 53 83 98 0
23 48 53 83 108 0
25 50 55 95 125 0
23 48 53 98 118 0
23 48 53 108 118 0
24 49 59 69 74 0
24 49 59 69 89 0
24 49 59 69 104 0
24 49 59 74 84 0
24 49 59 74 124 0
24 49 59 84 89 0
24 49 59 84 104 0
24 49 59 89 124 0
25 50 60 95 120 0
25 50 60 100 115 0
24 49 59 104 124 0
22 47 62 67 72 0
22 47 62 67 77 0
22 47 62 67 107 0
23 48 63 73 88 0
22 47 62 72 97 0
22 47 62 72 102 0
23 48 63 73 123 0
22 47 62 77 97 0
22 47 62 77 102 0
23 48 63 83 88 0
23 48 63 83 123 0
23 48 63 88 118 0
22 47 62 97 107 0
22 47 62 102 107 0
23 48 63 118 123 0
22 47 67 72 92 0
24 49 69 74 99 0
24 49 69 74 114 0
22 47 67 72 122 0
22 47 67 77 92 0
22 47 67 77 122 0
24 49 69 89 99 0
24 49 69 89 114 0
22 47 67 92 107 0
24 49 69 99 104 0
24 49 69 104 114 0
22 47 67 107 122 0
25 50 75 80 120 0
24 49 74 84 99 0
24 49 74 84 114 0
23 48 73 88 98 0
23 48 73 88 108 0
22 47 72 92 97 0
22 47 72 92 102 0
22 47 72 97 122 0
23 48 73 98 123 0
24 49 74 99 124 0
25 50 75 100 125 0
22 47 72 102 122 0
23 48 73 108 123 0
24 49 74 114 124 0
22 47 77 92 97 0
22 47 77 92 102 0
22 47 77 97 122 0
22 47 77 102 122 0
23 48 83 88 98 0
24 49 84 89 99 0
23 48 83 88 108 0
24 49 84 89 114 0
24 49 84 99 104 0
23 48 83 98 123 0
24 49 84 104 114 0
23 48 83 108 123 0
23 48 88 98 118 0
24 49 89 99 124 0
23 48 88 108 118 0
24 49 89 114 124 0
22 47 92 97 107 0
22 47 92 102 107 0
24 49 99 104 124 0
22 47 97 107 122 0
23 48 98 118 123 0
22 47 102 107 122 0
24 49 104 114 124 0
23 48 108 118 123 0
21 51 56 61 66 0
23 53 58 63 73 0
23 53 58 63 83 0
21 51 56 61 91 0
21 51 56 61 116 0
23 53 58 63 118 0
21 51 56 66 86 0
21 51 56 66 111 0
23 53 58 73 98 0
23 53 58 73 108 0
23 53 58 83 98 0
23 53 58 83 108 0
21 51 56 86 91 0
21 51 56 86 116 0
21 51 56 91 111 0
23 53 58 98 118 0
23 53 58 108 118 0
21 51 56 111 116 0
22 52 62 67 72 0
22 52 62 67 77 0
21 51 61 66 81 0
21 51 61 66 106 0
22 52 62 67 107 0
23 53 63 73 93 0
22 52 62 72 97 0
22 52 62 72 102 0
23 53 63 73 103 0
22 52 62 77 97 0
22 52 62 77 102 0
21 51 61 81 91 0
23 53 63 83 93 0
23 53 63 83 103 0
21 51 61 81 116 0
21 51 61 91 106 0
23 53 63 93 118 0
22 52 62 97 107 0
22 52 62 102 107 0
23 53 63 103 118 0
21 51 61 106 116 0
22 52 67 72 92 0
22 52 67 72 122 0
22 52 67 77 92 0
22 52 67 77 122 0
21 51 66 81 86 0
21 51 66 81 111 0
21 51 66 86 106 0
22 52 67 92 107 0
21 51 66 106 111 0
22 52 67 107 122 0
22 52 72 92 97 0
23 53 73 93 98 0
22 52 72 92 102 0
23 53 73 93 108 0
23 53 73 98 103 0
22 52 72 97 122 0
23 53 73 103 108 0
22 52 72 102 122 0
22 52 77 92 97 0
22 52 77 92 102 0
22 52 77 97 122 0
22 52 77 102 122 0
21 51 81 86 91 0
21 51 81 86 116 0
23 53 83 93 98 0
23 53 83 93 108 0
21 51 81 91 111 0
23 53 83 98 103 0
23 53 83 103 108 0
21 51 81 111 116 0
21 51 86 91 106 0
21 51 86 106 116 0
22 52 92 97 107 0
23 53 93 98 118 0
22 52 92 102 107 0
21 51 91 106 111 0
23 53 93 108 118 0
23 53 98 103 118 0
22 52 97 107 122 0
23 53 103 108 118 0
22 52 102 107 122 0
21 51 106 111 116 0
24 59 64 69 74 0
21 56 61 66 76 0
24 59 64 69 89 0
21 56 61 66 101 0
24 59 64 69 104 0
24 59 64 74 84 0
23 58 63 73 88 0
23 58 63 73 123 0
24 59 64 74 124 0
21 56 61 76 91 0
21 56 61 76 116 0
23 58 63 83 88 0
24 59 64 84 89 0
24 59 64 84 104 0
23 58 63 83 123 0
23 58 63 88 118 0
24 59 64 89 124 0
21 56 61 91 101 0
21 56 61 101 116 0
24 59 64 104 124 0
23 58 63 118 123 0
24 59 69 74 79 0
24 59 69 74 119 0
21 56 66 76 86 0
24 59 69 79 89 0
24 59 69 79 104 0
21 56 66 76 111 0
21 56 66 86 101 0
24 59 69 89 119 0
21 56 66 101 111 0
24 59 69 104 119 0
24 59 74 79 84 0
24 59 74 79 124 0
24 59 74 84 119 0
23 58 73 88 98 0
23 58 73 88 108 0
23 58 73 98 123 0
23 58 73 108 123 0
24 59 74 119 124 0
24 59 79 84 89 0
24 59 79 84 104 0
21 56 76 86 91 0
21 56 76 86 116 0
24 59 79 89 124 0
21 56 76 91 111 0
24 59 79 104 124 0
21 56 76 111 116 0
23 58 83 88 98 0
23 58 83 88 108 0
24 59 84 89 119 0
23 58 83 98 123 0
24 59 84 104 119 0
23 58 83 108 123 0
21 56 86 91 101 0
23 58 88 98 118 0
21 56 86 101 116 0
23 58 88 108 118 0
24 59 89 119 124 0
21 56 91 101 111 0
23 58 98 118 123 0
21 56 101 111 116 0
24 59 104 119 124 0
23 58 108 118 123 0
22 62 67 72 82 0
24 64 69 74 99 0
22 62 67 72 112 0
24 64 69 74 114 0
21 61 66 76 81 0
22 62 67 77 82 0
21 61 66 76 106 0
22 62 67 77 112 0
21 61 66 81 101 0
22 62 67 82 107 0
24 64 69 89 99 0
24 64 69 89 114 0
24 64 69 99 104 0
21 61 66 101 106 0
24 64 69 104 114 0
22 62 67 107 112 0
22 62 72 82 97 0
24 64 74 84 99 0
22 62 72 82 102 0
24 64 74 84 114 0
23 63 73 88 93 0
23 63 73 88 103 0
23 63 73 93 123 0
22 62 72 97 112 0
24 64 74 99 124 0
22 62 72 102 112 0
23 63 73 103 123 0
24 64 74 114 124 0
21 61 76 81 91 0
22 62 77 82 97 0
22 62 77 82 102 0
21 61 76 81 116 0
21 61 76 91 106 0
22 62 77 97 112 0
22 62 77 102 112 0
21 61 76 106 116 0
23 63 83 88 93 0
24 64 84 89 99 0
23 63 83 88 103 0
24 64 84 89 114 0
21 61 81 91 101 0
23 63 83 93 123 0
24 64 84 99 104 0
22 62 82 97 107 0
22 62 82 102 107 0
24 64 84 104 114 0
21 61 81 101 116 0
23 63 83 103 123 0
23 63 88 93 118 0
24 64 89 99 124 0
23 63 88 103 118 0
24 64 89 114 124 0
21 61 91 101 106 0
23 63 93 118 123 0
24 64 99 104 124 0
22 62 97 107 112 0
22 62 102 107 112 0
21 61 101 106 116 0
24 64 104 114 124 0
23 63 103 118 123 0
24 69 74 79 99 0
24 69 74 79 114 0
22 67 72 82 92 0
22 67 72 82 122 0
22 67 72 92 112 0
24 69 74 99 119 0
24 69 74 114 119 0
22 67 72 112 122 0
21 66 76 81 86 0
22 67 77 82 92 0
21 66 76 81 111 0
22 67 77 82 122 0
24 69 79 89 99 0
21 66 76 86 106 0
24 69 79 89 114 0
22 67 77 92 112 0
24 69 79 99 104 0
24 69 79 104 114 0
21 66 76 106 111 0
22 67 77 112 122 0
21 66 81 86 101 0
22 67 82 92 107 0
21 66 81 101 111 0
22 67 82 107 122 0
24 69 89 99 119 0
21 66 86 101 106 0
24 69 89 114 119 0
22 67 92 107 112 0
24 69 99 104 119 0
21 66 101 106 111 0
24 69 104 114 119 0
22 67 107 112 122 0
24 74 79 84 99 0
24 74 79 84 114 0
24 74 79 99 124 0
24 74 79 114 124 0
22 72 82 92 97 0
22 72 82 92 102 0
24 74 84 99 119 0
22 72 82 97 122 0
22 72 82 102 122 0
24 74 84 114 119 0
23 73 88 93 98 0
23 73 88 93 108 0
23 73 88 98 103 0
23 73 88 103 108 0
22 72 92 97 112 0
23 73 93 98 123 0
22 72 92 102 112 0
23 73 93 108 123 0
23 73 98 103 123 0
22 72 97 112 122 0
24 74 99 119 124 0
23 73 103 108 123 0
22 72 102 112 122 0
24 74 114 119 124 0
21 76 81 86 91 0
24 79 84 89 99 0
24 79 84 89 114 0
21 76 81 86 116 0
22 77 82 92 97 0
22 77 82 92 102 0
21 76 81 91 111 0
24 79 84 99 104 0
22 77 82 97 122 0
24 79 84 104 114 0
22 77 82 102 122 0
21 76 81 111 116 0
21 76 86 91 106 0
24 79 89 99 124 0
21 76 86 106 116 0
24 79 89 114 124 0
22 77 92 97 112 0
22 77 92 102 112 0
21 76 91 106 111 0
24 79 99 104 124 0
22 77 97 112 122 0
22 77 102 112 122 0
24 79 104 114 124 0
21 76 106 111 116 0
23 83 88 93 98 0
21 81 86 91 101 0
23 83 88 93 108 0
23 83 88 98 103 0
24 84 89 99 119 0
23 83 88 103 108 0
21 81 86 101 116 0
24 84 89 114 119 0
22 82 92 97 107 0
23 83 93 98 123 0
22 82 92 102 107 0
21 81 91 101 111 0
23 83 93 108 123 0
24 84 99 104 119 0
23 83 98 103 123 0
22 82 97 107 122 0
22 82 102 107 122 0
23 83 103 108 123 0
21 81 101 111 116 0
24 84 104 114 119 0
23 88 93 98 118 0
21 86 91 101 106 0
23 88 93 108 118 0
23 88 98 103 118 0
24 89 99 119 124 0
21 86 101 106 116 0
23 88 103 108 118 0
24 89 114 119 124 0
22 92 97 107 112 0
23 93 98 118 123 0
21 91 101 106 111 0
22 92 102 107 112 0
23 93 108 118 123 0
23 98 103 118 123 0
24 99 104 119 124 0
22 97 107 112 122 0
21 101 106 111 116 0
22 102 107 112 122 0
23 103 108 118 123 0
24 104 114 119 124 0
26 31 36 41 46 0
27 32 37 42 47 0
28 33 38 43 48 0
29 34 39 44 49 0
27 32 37 42 52 0
28 33 38 43 58 0
29 34 39 44 64 0
26 31 36 41 71 0
29 34 39 44 79 0
27 32 37 42 82 0
28 33 38 43 93 0
26 31 36 41 96 0
28 33 38 43 103 0
27 32 37 42 112 0
29 34 39 44 119 0
26 31 36 41 121 0
28 33 38 48 53 0
29 34 39 49 59 0
26 31 36 46 66 0
27 32 37 47 72 0
27 32 37 47 77 0
28 33 38 48 88 0
26 31 36 46 91 0
29 34 39 49 99 0
27 32 37 47 107 0
29 34 39 49 114 0
26 31 36 46 116 0
28 33 38 48 123 0
28 33 38 53 58 0
27 32 37 52 72 0
27 32 37 52 77 0
28 33 38 53 93 0
28 33 38 53 103 0
27 32 37 52 107 0
29 34 39 59 64 0
29 34 39 59 79 0
28 33 38 58 88 0
29 34 39 59 119 0
28 33 38 58 123 0
29 34 39 64 99 0
29 34 39 64 114 0
26 31 36 66 71 0
26 31 36 66 96 0
26 31 36 66 121 0
27 32 37 72 82 0
26 31 36 71 91 0
27 32 37 72 112 0
26 31 36 71 116 0
27 32 37 77 82 0
29 34 39 79 99 0
27 32 37 77 112 0
29 34 39 79 114 0
27 32 37 82 107 0
28 33 38 88 93 0
28 33 38 88 103 0
26 31 36 91 96 0
26 31 36 91 121 0
28 33 38 93 123 0
26 31 36 96 116 0
29 34 39 99 119 0
28 33 38 103 123 0
27 32 37 107 112 0
29 34 39 114 119 0
26 31 36 116 121 0
29 34 44 49 54 0
26 31 41 46 61 0
27 32 42 47 67 0
28 33 43 48 73 0
28 33 43 48 83 0
26 31 41 46 86 0
29 34 44 49 94 0
27 32 42 47 97 0
27 32 42 47 102 0
29 34 44 49 109 0
26 31 41 46 111 0
28 33 43 48 118 0
29 34 44 54 64 0
27 32 42 52 67 0
29 34 44 54 79 0
27 32 42 52 97 0
27 32 42 52 102 0
29 34 44 54 119 0
28 33 43 58 73 0
28 33 43 58 83 0
28 33 43 58 118 0
26 31 41 61 71 0
29 34 44 64 94 0
26 31 41 61 96 0
29 34 44 64 109 0
26 31 41 61 121 0
27 32 42 67 82 0
27 32 42 67 112 0
26 31 41 71 86 0
28 33 43 73 93 0
28 33 43 73 103 0
26 31 41 71 111 0
29 34 44 79 94 0
29 34 44 79 109 0
28 33 43 83 93 0
27 32 42 82 97 0
27 32 42 82 102 0
28 33 43 83 103 0
26 31 41 86 96 0
26 31 41 86 121 0
28 33 43 93 118 0
29 34 44 94 119 0
26 31 41 96 111 0
27 32 42 97 112 0
27 32 42 102 112 0
28 33 43 103 118 0
29 34 44 109 119 0
26 31 41 111 121 0
29 34 49 54 59 0
28 33 48 53 73 0
28 33 48 53 83 0
29 34 49 54 99 0
29 34 49 54 114 0
28 33 48 53 118 0
29 34 49 59 94 0
29 34 49 59 109 0
26 31 46 61 66 0
26 31 46 61 91 0
26 31 46 61 116 0
27 32 47 67 72 0
27 32 47 67 77 0
26 31 46 66 86 0
27 32 47 67 107 0
26 31 46 66 111 0
28 33 48 73 88 0
27 32 47 72 97 0
27 32 47 72 102 0
28 33 48 73 123 0
27 32 47 77 97 0
27 32 47 77 102 0
28 33 48 83 88 0
28 33 48 83 123 0
26 31 46 86 91 0
26 31 46 86 116 0
28 33 48 88 118 0
29 34 49 94 99 0
26 31 46 91 111 0
29 34 49 94 114 0
27 32 47 97 107 0
29 34 49 99 109 0
27 32 47 102 107 0
29 34 49 109 114 0
26 31 46 111 116 0
28 33 48 118 123 0
29 34 54 59 64 0
28 33 53 58 73 0
29 34 54 59 79 0
28 33 53 58 83 0
28 33 53 58 118 0
29 34 54 59 119 0
29 34 54 64 99 0
29 34 54 64 114 0
27 32 52 67 72 0
27 32 52 67 77 0
27 32 52 67 107 0
28 33 53 73 93 0
27 32 52 72 97 0
27 32 52 72 102 0
28 33 53 73 103 0
27 32 52 77 97 0
29 34 54 79 99 0
27 32 52 77 102 0
29 34 54 79 114 0
28 33 53 83 93 0
28 33 53 83 103 0
28 33 53 93 118 0
27 32 52 97 107 0
29 34 54 99 119 0
27 32 52 102 107 0
28 33 53 103 118 0
29 34 54 114 119 0
29 34 59 64 94 0
29 34 59 64 109 0
28 33 58 73 88 0
28 33 58 73 123 0
29 34 59 79 94 0
29 34 59 79 109 0
28 33 58 83 88 0
28 33 58 83 123 0
28 33 58 88 118 0
29 34 59 94 119 0
29 34 59 109 119 0
28 33 58 118 123 0
26 31 61 66 71 0
26 31 61 66 96 0
26 31 61 66 121 0
26 31 61 71 91 0
26 31 61 71 116 0
26 31 61 91 96 0
29 34 64 94 99 0
29 34 64 94 114 0
26 31 61 91 121 0
29 34 64 99 109 0
26 31 61 96 116 0
29 34 64 109 114 0
26 31 61 116 121 0
27 32 67 72 82 0
26 31 66 71 86 0
26 31 66 71 111 0
27 32 67 72 112 0
27 32 67 77 82 0
27 32 67 77 112 0
27 32 67 82 107 0
26 31 66 86 96 0
26 31 66 86 121 0
26 31 66 96 111 0
27 32 67 107 112 0
26 31 66 111 121 0
27 32 72 82 97 0
27 32 72 82 102 0
26 31 71 86 91 0
28 33 73 88 93 0
28 33 73 88 103 0
26 31 71 86 116 0
26 31 71 91 111 0
28 33 73 93 123 0
27 32 72 97 112 0
27 32 72 102 112 0
28 33 73 103 123 0
26 31 71 111 116 0
27 32 77 82 97 0
27 32 77 82 102 0
29 34 79 94 99 0
29 34 79 94 114 0
29 34 79 99 109 0
27 32 77 97 112 0
27 32 77 102 112 0
29 34 79 109 114 0
28 33 83 88 93 0
28 33 83 88 103 0
28 33 83 93 123 0
27 32 82 97 107 0
27 32 82 102 107 0
28 33 83 103 123 0
26 31 86 91 96 0
28 33 88 93 118 0
26 31 86 91 121 0
26 31 86 96 116 0
28 33 88 103 118 0
26 31 86 116 121 0
26 31 91 96 111 0
29 34 94 99 119 0
29 34 94 114 119 0
26 31 91 111 121 0
28 33 93 118 123 0
27 32 97 107 112 0
29 34 99 109 119 0
26 31 96 111 116 0
27 32 102 107 112 0
28 33 103 118 123 0
29 34 109 114 119 0
26 31 111 116 121 0
26 36 41 46 56 0
27 37 42 47 62 0
28 38 43 48 68 0
29 39 44 49 74 0
28 38 43 48 78 0
26 36 41 46 81 0
29 39 44 49 89 0
27 37 42 47 92 0
29 39 44 49 104 0
26 36 41 46 106 0
28 38 43 48 113 0
27 37 42 47 122 0
27 37 42 52 62 0
27 37 42 52 92 0
27 37 42 52 122 0
28 38 43 58 68 0
26 36 41 56 71 0
28 38 43 58 78 0
26 36 41 56 96 0
28 38 43 58 113 0
26 36 41 56 121 0
29 39 44 64 74 0
27 37 42 62 82 0
29 39 44 64 89 0
29 39 44 64 104 0
27 37 42 62 112 0
28 38 43 68 93 0
28 38 43 68 103 0
29 39 44 74 79 0
26 36 41 71 81 0
26 36 41 71 106 0
29 39 44 74 119 0
29 39 44 79 89 0
28 38 43 78 93 0
28 38 43 78 103 0
29 39 44 79 104 0
27 37 42 82 92 0
26 36 41 81 96 0
26 36 41 81 121 0
27 37 42 82 122 0
29 39 44 89 119 0
27 37 42 92 112 0
28 38 43 93 113 0
26 36 41 96 106 0
28 38 43 103 113 0
29 39 44 104 119 0
26 36 41 106 121 0
27 37 42 112 122 0
28 38 48 53 68 0
28 38 48 53 78 0
28 38 48 53 113 0
26 36 46 56 66 0
29 39 49 59 74 0
29 39 49 59 89 0
26 36 46 56 91 0
29 39 49 59 104 0
26 36 46 56 116 0
27 37 47 62 72 0
27 37 47 62 77 0
27 37 47 62 107 0
26 36 46 66 81 0
28 38 48 68 88 0
26 36 46 66 106 0
28 38 48 68 123 0
27 37 47 72 92 0
29 39 49 74 99 0
29 39 49 74 114 0
27 37 47 72 122 0
28 38 48 78 88 0
27 37 47 77 92 0
27 37 47 77 122 0
28 38 48 78 123 0
26 36 46 81 91 0
26 36 46 81 116 0
29 39 49 89 99 0
28 38 48 88 113 0
29 39 49 89 114 0
26 36 46 91 106 0
27 37 47 92 107 0
29 39 49 99 104 0
29 39 49 104 114 0
26 36 46 106 116 0
27 37 47 107 122 0
28 38 48 113 123 0
28 38 53 58 68 0
28 38 53 58 78 0
28 38 53 58 113 0
27 37 52 62 72 0
27 37 52 62 77 0
27 37 52 62 107 0
28 38 53 68 93 0
28 38 53 68 103 0
27 37 52 72 92 0
27 37 52 72 122 0
27 37 52 77 92 0
28 38 53 78 93 0
28 38 53 78 103 0
27 37 52 77 122 0
27 37 52 92 107 0
28 38 53 93 113 0
28 38 53 103 113 0
27 37 52 107 122 0
29 39 59 64 74 0
29 39 59 64 89 0
29 39 59 64 104 0
26 36 56 66 71 0
28 38 58 68 88 0
26 36 56 66 96 0
26 36 56 66 121 0
28 38 58 68 123 0
29 39 59 74 79 0
26 36 56 71 91 0
26 36 56 71 116 0
29 39 59 74 119 0
28 38 58 78 88 0
29 39 59 79 89 0
29 39 59 79 104 0
28 38 58 78 123 0
28 38 58 88 113 0
29 39 59 89 119 0
26 36 56 91 96 0
26 36 56 91 121 0
26 36 56 96 116 0
29 39 59 104 119 0
28 38 58 113 123 0
26 36 56 116 121 0
27 37 62 72 82 0
29 39 64 74 99 0
27 37 62 72 112 0
29 39 64 74 114 0
27 37 62 77 82 0
27 37 62 77 112 0
27 37 62 82 107 0
29 39 64 89 99 0
29 39 64 89 114 0
29 39 64 99 104 0
29 39 64 104 114 0
27 37 62 107 112 0
26 36 66 71 81 0
26 36 66 71 106 0
26 36 66 81 96 0
26 36 66 81 121 0
28 38 68 88 93 0
28 38 68 88 103 0
28 38 68 93 123 0
26 36 66 96 106 0
28 38 68 103 123 0
26 36 66 106 121 0
29 39 74 79 99 0
29 39 74 79 114 0
26 36 71 81 91 0
27 37 72 82 92 0
26 36 71 81 116 0
27 37 72 82 122 0
26 36 71 91 106 0
27 37 72 92 112 0
29 39 74 99 119 0
26 36 71 106 116 0
29 39 74 114 119 0
27 37 72 112 122 0
27 37 77 82 92 0
27 37 77 82 122 0
28 38 78 88 93 0
29 39 79 89 99 0
28 38 78 88 103 0
29 39 79 89 114 0
27 37 77 92 112 0
28 38 78 93 123 0
29 39 79 99 104 0
29 39 79 104 114 0
28 38 78 103 123 0
27 37 77 112 122 0
26 36 81 91 96 0
27 37 82 92 107 0
26 36 81 91 121 0
26 36 81 96 116 0
27 37 82 107 122 0
26 36 81 116 121 0
28 38 88 93 113 0
29 39 89 99 119 0
28 38 88 103 113 0
29 39 89 114 119 0
26 36 91 96 106 0
27 37 92 107 112 0
26 36 91 106 121 0
28 38 93 113 123 0
29 39 99 104 119 0
26 36 96 106 116 0
29 39 104 114 119 0
28 38 103 113 123 0
27 37 107 112 122 0
26 36 106 116 121 0
29 44 49 54 74 0
29 44 49 54 89 0
29 44 49 54 104 0
26 41 46 56 61 0
26 41 46 56 86 0
26 41 46 56 111 0
27 42 47 62 67 0
26 41 46 61 81 0
27 42 47 62 97 0
27 42 47 62 102 0
26 41 46 61 106 0
28 43 48 68 73 0
28 43 48 68 83 0
27 42 47 67 92 0
28 43 48 68 118 0
27 42 47 67 122 0
28 43 48 73 78 0
29 44 49 74 94 0
29 44 49 74 109 0
28 43 48 73 113 0
28 43 48 78 83 0
28 43 48 78 118 0
26 41 46 81 86 0
26 41 46 81 111 0
28 43 48 83 113 0
29 44 49 89 94 0
26 41 46 86 106 0
29 44 49 89 109 0
27 42 47 92 97 0
27 42 47 92 102 0
29 44 49 94 104 0
27 42 47 97 122 0
29 44 49 104 109 0
27 42 47 102 122 0
26 41 46 106 111 0
28 43 48 113 118 0
27 42 52 62 67 0
29 44 54 64 74 0
29 44 54 64 89 0
27 42 52 62 97 0
27 42 52 62 102 0
29 44 54 64 104 0
27 42 52 67 92 0
27 42 52 67 122 0
29 44 54 74 79 0
29 44 54 74 119 0
29 44 54 79 89 0
29 44 54 79 104 0
29 44 54 89 119 0
27 42 52 92 97 0
27 42 52 92 102 0
27 42 52 97 122 0
29 44 54 104 119 0
27 42 52 102 122 0
26 41 56 61 71 0
26 41 56 61 96 0
26 41 56 61 121 0
28 43 58 68 73 0
28 43 58 68 83 0
28 43 58 68 118 0
28 43 58 73 78 0
26 41 56 71 86 0
26 41 56 71 111 0
28 43 58 73 113 0
28 43 58 78 83 0
28 43 58 78 118 0
28 43 58 83 113 0
26 41 56 86 96 0
26 41 56 86 121 0
26 41 56 96 111 0
28 43 58 113 118 0
26 41 56 111 121 0
27 42 62 67 82 0
27 42 62 67 112 0
26 41 61 71 81 0
29 44 64 74 94 0
26 41 61 71 106 0
29 44 64 74 109 0
26 41 61 81 96 0
27 42 62 82 97 0
27 42 62 82 102 0
26 41 61 81 121 0
29 44 64 89 94 0
29 44 64 89 109 0
29 44 64 94 104 0
26 41 61 96 106 0
27 42 62 97 112 0
29 44 64 104 109 0
27 42 62 102 112 0
26 41 61 106 121 0
28 43 68 73 93 0
28 43 68 73 103 0
27 42 67 82 92 0
28 43 68 83 93 0
28 43 68 83 103 0
27 42 67 82 122 0
27 42 67 92 112 0
28 43 68 93 118 0
28 43 68 103 118 0
27 42 67 112 122 0
28 43 73 78 93 0
29 44 74 79 94 0
28 43 73 78 103 0
29 44 74 79 109 0
26 41 71 81 86 0
26 41 71 81 111 0
26 41 71 86 106 0
28 43 73 93 113 0
29 44 74 94 119 0
28 43 73 103 113 0
26 41 71 106 111 0
29 44 74 109 119 0
28 43 78 83 93 0
28 43 78 83 103 0
29 44 79 89 94 0
29 44 79 89 109 0
29 44 79 94 104 0
28 43 78 93 118 0
29 44 79 104 109 0
28 43 78 103 118 0
26 41 81 86 96 0
26 41 81 86 121 0
27 42 82 92 97 0
27 42 82 92 102 0
28 43 83 93 113 0
26 41 81 96 111 0
27 42 82 97 122 0
28 43 83 103 113 0
27 42 82 102 122 0
26 41 81 111 121 0
29 44 89 94 119 0
26 41 86 96 106 0
29 44 89 109 119 0
26 41 86 106 121 0
27 42 92 97 112 0
27 42 92 102 112 0
29 44 94 104 119 0
28 43 93 113 118 0
26 41 96 106 111 0
27 42 97 112 122 0
29 44 104 109 119 0
28 43 103 113 118 0
27 42 102 112 122 0
26 41 106 111 121 0
29 49 54 59 74 0
29 49 54 59 89 0
29 49 54 59 104 0
28 48 53 68 73 0
28 48 53 68 83 0
28 48 53 68 118 0
28 48 53 73 78 0
29 49 54 74 99 0
28 48 53 73 113 0
29 49 54 74 114 0
28 48 53 78 83 0
28 48 53 78 118 0
28 48 53 83 113 0
29 49 54 89 99 0
29 49 54 89 114 0
29 49 54 99 104 0
29 49 54 104 114 0
28 48 53 113 118 0
26 46 56 61 66 0
26 46 56 61 91 0
26 46 56 61 116 0
26 46 56 66 86 0
26 46 56 66 111 0
29 49 59 74 94 0
29 49 59 74 109 0
26 46 56 86 91 0
29 49 59 89 94 0
29 49 59 89 109 0
26 46 56 86 116 0
29 49 59 94 104 0
26 46 56 91 111 0
29 49 59 104 109 0
26 46 56 111 116 0
27 47 62 67 72 0
27 47 62 67 77 0
26 46 61 66 81 0
26 46 61 66 106 0
27 47 62 67 107 0
27 47 62 72 97 0
27 47 62 72 102 0
27 47 62 77 97 0
27 47 62 77 102 0
26 46 61 81 91 0
26 46 61 81 116 0
26 46 61 91 106 0
27 47 62 97 107 0
27 47 62 102 107 0
26 46 61 106 116 0
28 48 68 73 88 0
27 47 67 72 92 0
27 47 67 72 122 0
28 48 68 73 123 0
27 47 67 77 92 0
27 47 67 77 122 0
26 46 66 81 86 0
28 48 68 83 88 0
26 46 66 81 111 0
28 48 68 83 123 0
26 46 66 86 106 0
28 48 68 88 118 0
27 47 67 92 107 0
26 46 66 106 111 0
27 47 67 107 122 0
28 48 68 118 123 0
28 48 73 78 88 0
28 48 73 78 123 0
28 48 73 88 113 0
27 47 72 92 97 0
29 49 74 94 99 0
27 47 72 92 102 0
29 49 74 94 114 0
29 49 74 99 109 0
27 47 72 97 122 0
27 47 72 102 122 0
29 49 74 109 114 0
28 48 73 113 123 0
28 48 78 83 88 0
28 48 78 83 123 0
28 48 78 88 118 0
27 47 77 92 97 0
27 47 77 92 102 0
27 47 77 97 122 0
27 47 77 102 122 0
28 48 78 118 123 0
26 46 81 86 91 0
28 48 83 88 113 0
26 46 81 86 116 0
26 46 81 91 111 0
26 46 81 111 116 0
28 48 83 113 123 0
29 49 89 94 99 0
26 46 86 91 106 0
29 49 89 94 114 0
29 49 89 99 109 0
29 49 89 109 114 0
26 46 86 106 116 0
28 48 88 113 118 0
29 49 94 99 104 0
27 47 92 97 107 0
27 47 92 102 107 0
29 49 94 104 114 0
26 46 91 106 111 0
29 49 99 104 109 0
27 47 97 107 122 0
29 49 104 109 114 0
27 47 102 107 122 0
26 46 106 111 116 0
28 48 113 118 123 0
29 54 59 64 74 0
29 54 59 64 89 0
29 54 59 64 104 0
28 53 58 68 73 0
28 53 58 68 83 0
28 53 58 68 118 0
28 53 58 73 78 0
29 54 59 74 79 0
28 53 58 73 113 0
29 54 59 74 119 0
28 53 58 78 83 0
29 54 59 79 89 0
29 54 59 79 104 0
28 53 58 78 118 0
28 53 58 83 113 0
29 54 59 89 119 0
29 54 59 104 119 0
28 53 58 113 118 0
27 52 62 67 72 0
27 52 62 67 77 0
27 52 62 67 107 0
27 52 62 72 97 0
29 54 64 74 99 0
27 52 62 72 102 0
29 54 64 74 114 0
27 52 62 77 97 0
27 52 62 77 102 0
29 54 64 89 99 0
29 54 64 89 114 0
29 54 64 99 104 0
27 52 62 97 107 0
27 52 62 102 107 0
29 54 64 104 114 0
27 52 67 72 92 0
28 53 68 73 93 0
28 53 68 73 103 0
27 52 67 72 122 0
27 52 67 77 92 0
27 52 67 77 122 0
28 53 68 83 93 0
28 53 68 83 103 0
27 52 67 92 107 0
28 53 68 93 118 0
28 53 68 103 118 0
27 52 67 107 122 0
28 53 73 78 93 0
29 54 74 79 99 0
28 53 73 78 103 0
29 54 74 79 114 0
27 52 72 92 97 0
27 52 72 92 102 0
28 53 73 93 113 0
29 54 74 99 119 0
27 52 72 97 122 0
28 53 73 103 113 0
27 52 72 102 122 0
29 54 74 114 119 0
28 53 78 83 93 0
28 53 78 83 103 0
29 54 79 89 99 0
29 54 79 89 114 0
27 52 77 92 97 0
27 52 77 92 102 0
28 53 78 93 118 0
29 54 79 99 104 0
27 52 77 97 122 0
29 54 79 104 114 0
28 53 78 103 118 0
27 52 77 102 122 0
28 53 83 93 113 0
28 53 83 103 113 0
29 54 89 99 119 0
29 54 89 114 119 0
27 52 92 97 107 0
27 52 92 102 107 0
28 53 93 113 118 0
29 54 99 104 119 0
27 52 97 107 122 0
27 52 102 107 122 0
28 53 103 113 118 0
29 54 104 114 119 0
26 56 61 66 71 0
26 56 61 66 96 0
26 56 61 66 121 0
26 56 61 71 91 0
29 59 64 74 94 0
29 59 64 74 109 0
26 56 61 71 116 0
29 59 64 89 94 0
29 59 64 89 109 0
26 56 61 91 96 0
29 59 64 94 104 0
26 56 61 91 121 0
26 56 61 96 116 0
29 59 64 104 109 0
26 56 61 116 121 0
26 56 66 71 86 0
28 58 68 73 88 0
26 56 66 71 111 0
28 58 68 73 123 0
28 58 68 83 88 0
28 58 68 83 123 0
26 56 66 86 96 0
28 58 68 88 118 0
26 56 66 86 121 0
26 56 66 96 111 0
26 56 66 111 121 0
28 58 68 118 123 0
28 58 73 78 88 0
29 59 74 79 94 0
29 59 74 79 109 0
28 58 73 78 123 0
26 56 71 86 91 0
28 58 73 88 113 0
26 56 71 86 116 0
26 56 71 91 111 0
29 59 74 94 119 0
29 59 74 109 119 0
26 56 71 111 116 0
28 58 73 113 123 0
28 58 78 83 88 0
28 58 78 83 123 0
29 59 79 89 94 0
29 59 79 89 109 0
28 58 78 88 118 0
29 59 79 94 104 0
29 59 79 104 109 0
28 58 78 118 123 0
28 58 83 88 113 0
28 58 83 113 123 0
26 56 86 91 96 0
29 59 89 94 119 0
26 56 86 91 121 0
26 56 86 96 116 0
29 59 89 109 119 0
28 58 88 113 118 0
26 56 86 116 121 0
26 56 91 96 111 0
29 59 94 104 119 0
26 56 91 111 121 0
26 56 96 111 116 0
29 59 104 109 119 0
26 56 111 116 121 0
28 58 113 118 123 0
26 61 66 71 81 0
27 62 67 72 82 0
26 61 66 71 106 0
27 62 67 72 112 0
27 62 67 77 82 0
27 62 67 77 112 0
26 61 66 81 96 0
27 62 67 82 107 0
26 61 66 81 121 0
26 61 66 96 106 0
27 62 67 107 112 0
26 61 66 106 121 0
26 61 71 81 91 0
27 62 72 82 97 0
27 62 72 82 102 0
26 61 71 81 116 0
29 64 74 94 99 0
26 61 71 91 106 0
29 64 74 94 114 0
29 64 74 99 109 0
27 62 72 97 112 0
27 62 72 102 112 0
29 64 74 109 114 0
26 61 71 106 116 0
27 62 77 82 97 0
27 62 77 82 102 0
27 62 77 97 112 0
27 62 77 102 112 0
26 61 81 91 96 0
26 61 81 91 121 0
27 62 82 97 107 0
26 61 81 96 116 0
27 62 82 102 107 0
26 61 81 116 121 0
29 64 89 94 99 0
29 64 89 94 114 0
29 64 89 99 109 0
29 64 89 109 114 0
29 64 94 99 104 0
26 61 91 96 106 0
29 64 94 104 114 0
26 61 91 106 121 0
29 64 99 104 109 0
27 62 97 107 112 0
26 61 96 106 116 0
27 62 102 107 112 0
29 64 104 109 114 0
26 61 106 116 121 0
26 66 71 81 86 0
27 67 72 82 92 0
26 66 71 81 111 0
27 67 72 82 122 0
28 68 73 88 93 0
28 68 73 88 103 0
26 66 71 86 106 0
27 67 72 92 112 0
28 68 73 93 123 0
28 68 73 103 123 0
26 66 71 106 111 0
27 67 72 112 122 0
27 67 77 82 92 0
27 67 77 82 122 0
27 67 77 92 112 0
27 67 77 112 122 0
28 68 83 88 93 0
26 66 81 86 96 0
28 68 83 88 103 0
26 66 81 86 121 0
27 67 82 92 107 0
28 68 83 93 123 0
26 66 81 96 111 0
28 68 83 103 123 0
27 67 82 107 122 0
26 66 81 111 121 0
28 68 88 93 118 0
26 66 86 96 106 0
28 68 88 103 118 0
26 66 86 106 121 0
27 67 92 107 112 0
28 68 93 118 123 0
26 66 96 106 111 0
28 68 103 118 123 0
26 66 106 111 121 0
27 67 107 112 122 0
28 73 78 88 93 0
28 73 78 88 103 0
29 74 79 94 99 0
29 74 79 94 114 0
28 73 78 93 123 0
29 74 79 99 109 0
28 73 78 103 123 0
29 74 79 109 114 0
26 71 81 86 91 0
26 71 81 86 116 0
27 72 82 92 97 0
27 72 82 92 102 0
26 71 81 91 111 0
27 72 82 97 122 0
27 72 82 102 122 0
26 71 81 111 116 0
26 71 86 91 106 0
28 73 88 93 113 0
28 73 88 103 113 0
26 71 86 106 116 0
27 72 92 97 112 0
29 74 94 99 119 0
27 72 92 102 112 0
26 71 91 106 111 0
29 74 94 114 119 0
28 73 93 113 123 0
29 74 99 109 119 0
27 72 97 112 122 0
27 72 102 112 122 0
28 73 103 113 123 0
26 71 106 111 116 0
29 74 109 114 119 0
28 78 83 88 93 0
28 78 83 88 103 0
27 77 82 92 97 0
27 77 82 92 102 0
28 78 83 93 123 0
27 77 82 97 122 0
27 77 82 102 122 0
28 78 83 103 123 0
29 79 89 94 99 0
29 79 89 94 114 0
28 78 88 93 118 0
29 79 89 99 109 0
28 78 88 103 118 0
29 79 89 109 114 0
29 79 94 99 104 0
27 77 92 97 112 0
27 77 92 102 112 0
29 79 94 104 114 0
28 78 93 118 123 0
29 79 99 104 109 0
27 77 97 112 122 0
29 79 104 109 114 0
27 77 102 112 122 0
28 78 103 118 123 0
26 81 86 91 96 0
28 83 88 93 113 0
26 81 86 91 121 0
26 81 86 96 116 0
28 83 88 103 113 0
26 81 86 116 121 0
27 82 92 97 107 0
26 81 91 96 111 0
27 82 92 102 107 0
26 81 91 111 121 0
28 83 93 113 123 0
27 82 97 107 122 0
26 81 96 111 116 0
27 82 102 107 122 0
28 83 103 113 123 0
26 81 111 116 121 0
26 86 91 96 106 0
29 89 94 99 119 0
26 86 91 106 121 0
28 88 93 113 118 0
29 89 94 114 119 0
26 86 96 106 116 0
29 89 99 109 119 0
28 88 103 113 118 0
29 89 109 114 119 0
26 86 106 116 121 0
29 94 99 104 119 0
26 91 96 106 111 0
27 92 97 107 112 0
27 92 102 107 112 0
29 94 104 114 119 0
26 91 106 111 121 0
28 93 113 118 123 0
29 99 104 109 119 0
26 96 106 111 116 0
27 97 107 112 122 0
29 104 109 114 119 0
27 102 107 112 122 0
28 103 113 118 123 0
26 106 111 116 121 0
31 36 41 46 51 0
32 37 42 47 57 0
33 38 43 48 63 0
34 39 44 49 69 0
31 36 41 46 76 0
34 39 44 49 84 0
32 37 42 47 87 0
33 38 43 48 98 0
31 36 41 46 101 0
33 38 43 48 108 0
32 37 42 47 117 0
34 39 44 49 124 0
32 37 42 52 57 0
31 36 41 51 71 0
32 37 42 52 87 0
31 36 41 51 96 0
32 37 42 52 117 0
31 36 41 51 121 0
33 38 43 58 63 0
32 37 42 57 82 0
33 38 43 58 98 0
33 38 43 58 108 0
32 37 42 57 112 0
34 39 44 64 69 0
34 39 44 64 84 0
33 38 43 63 93 0
33 38 43 63 103 0
34 39 44 64 124 0
34 39 44 69 79 0
34 39 44 69 119 0
31 36 41 71 76 0
31 36 41 71 101 0
34 39 44 79 84 0
31 36 41 76 96 0
31 36 41 76 121 0
34 39 44 79 124 0
32 37 42 82 87 0
32 37 42 82 117 0
34 39 44 84 119 0
32 37 42 87 112 0
33 38 43 93 98 0
33 38 43 93 108 0
31 36 41 96 101 0
33 38 43 98 103 0
33 38 43 103 108 0
31 36 41 101 121 0
32 37 42 112 117 0
34 39 44 119 124 0
33 38 48 53 63 0
31 36 46 51 66 0
31 36 46 51 91 0
33 38 48 53 98 0
33 38 48 53 108 0
31 36 46 51 116 0
34 39 49 59 69 0
32 37 47 57 72 0
32 37 47 57 77 0
34 39 49 59 84 0
32 37 47 57 107 0
34 39 49 59 124 0
33 38 48 63 88 0
33 38 48 63 123 0
31 36 46 66 76 0
34 39 49 69 99 0
31 36 46 66 101 0
34 39 49 69 114 0
32 37 47 72 87 0
32 37 47 72 117 0
32 37 47 77 87 0
31 36 46 76 91 0
31 36 46 76 116 0
32 37 47 77 117 0
34 39 49 84 99 0
34 39 49 84 114 0
33 38 48 88 98 0
32 37 47 87 107 0
33 38 48 88 108 0
31 36 46 91 101 0
33 38 48 98 123 0
34 39 49 99 124 0
31 36 46 101 116 0
32 37 47 107 117 0
33 38 48 108 123 0
34 39 49 114 124 0
33 38 53 58 63 0
32 37 52 57 72 0
32 37 52 57 77 0
33 38 53 58 98 0
32 37 52 57 107 0
33 38 53 58 108 0
33 38 53 63 93 0
33 38 53 63 103 0
31 36 51 66 71 0
31 36 51 66 96 0
31 36 51 66 121 0
32 37 52 72 87 0
31 36 51 71 91 0
31 36 51 71 116 0
32 37 52 72 117 0
32 37 52 77 87 0
32 37 52 77 117 0
32 37 52 87 107 0
31 36 51 91 96 0
33 38 53 93 98 0
33 38 53 93 108 0
31 36 51 91 121 0
33 38 53 98 103 0
31 36 51 96 116 0
33 38 53 103 108 0
32 37 52 107 117 0
31 36 51 116 121 0
34 39 59 64 69 0
34 39 59 64 84 0
33 38 58 63 88 0
33 38 58 63 123 0
34 39 59 64 124 0
34 39 59 69 79 0
34 39 59 69 119 0
32 37 57 72 82 0
32 37 57 72 112 0
32 37 57 77 82 0
34 39 59 79 84 0
32 37 57 77 112 0
34 39 59 79 124 0
32 37 57 82 107 0
34 39 59 84 119 0
33 38 58 88 98 0
33 38 58 88 108 0
33 38 58 98 123 0
32 37 57 107 112 0
33 38 58 108 123 0
34 39 59 119 124 0
34 39 64 69 99 0
34 39 64 69 114 0
34 39 64 84 99 0
34 39 64 84 114 0
33 38 63 88 93 0
33 38 63 88 103 0
33 38 63 93 123 0
34 39 64 99 124 0
33 38 63 103 123 0
34 39 64 114 124 0
31 36 66 71 76 0
31 36 66 71 101 0
31 36 66 76 96 0
34 39 69 79 99 0
34 39 69 79 114 0
31 36 66 76 121 0
31 36 66 96 101 0
34 39 69 99 119 0
31 36 66 101 121 0
34 39 69 114 119 0
31 36 71 76 91 0
31 36 71 76 116 0
32 37 72 82 87 0
32 37 72 82 117 0
32 37 72 87 112 0
31 36 71 91 101 0
31 36 71 101 116 0
32 37 72 112 117 0
32 37 77 82 87 0
34 39 79 84 99 0
34 39 79 84 114 0
32 37 77 82 117 0
32 37 77 87 112 0
31 36 76 91 96 0
31 36 76 91 121 0
31 36 76 96 116 0
34 39 79 99 124 0
32 37 77 112 117 0
34 39 79 114 124 0
31 36 76 116 121 0
32 37 82 87 107 0
34 39 84 99 119 0
32 37 82 107 117 0
34 39 84 114 119 0
33 38 88 93 98 0
33 38 88 93 108 0
33 38 88 98 103 0
33 38 88 103 108 0
32 37 87 107 112 0
31 36 91 96 101 0
33 38 93 98 123 0
31 36 91 101 121 0
33 38 93 108 123 0
31 36 96 101 116 0
33 38 98 103 123 0
34 39 99 119 124 0
33 38 103 108 123 0
31 36 101 116 121 0
32 37 107 112 117 0
34 39 114 119 124 0
31 41 46 51 61 0
34 44 49 54 69 0
34 44 49 54 84 0
31 41 46 51 86 0
31 41 46 51 111 0
34 44 49 54 124 0
32 42 47 57 67 0
32 42 47 57 97 0
32 42 47 57 102 0
33 43 48 63 73 0
31 41 46 61 76 0
33 43 48 63 83 0
31 41 46 61 101 0
33 43 48 63 118 0
32 42 47 67 87 0
34 44 49 69 94 0
34 44 49 69 109 0
32 42 47 67 117 0
33 43 48 73 98 0
33 43 48 73 108 0
31 41 46 76 86 0
31 41 46 76 111 0
34 44 49 84 94 0
33 43 48 83 98 0
33 43 48 83 108 0
34 44 49 84 109 0
32 42 47 87 97 0
31 41 46 86 101 0
32 42 47 87 102 0
34 44 49 94 124 0
32 42 47 97 117 0
33 43 48 98 118 0
31 41 46 101 111 0
32 42 47 102 117 0
33 43 48 108 118 0
34 44 49 109 124 0
32 42 52 57 67 0
32 42 52 57 97 0
32 42 52 57 102 0
34 44 54 64 69 0
31 41 51 61 71 0
34 44 54 64 84 0
31 41 51 61 96 0
31 41 51 61 121 0
34 44 54 64 124 0
34 44 54 69 79 0
32 42 52 67 87 0
32 42 52 67 117 0
34 44 54 69 119 0
31 41 51 71 86 0
31 41 51 71 111 0
34 44 54 79 84 0
34 44 54 79 124 0
34 44 54 84 119 0
31 41 51 86 96 0
32 42 52 87 97 0
32 42 52 87 102 0
31 41 51 86 121 0
31 41 51 96 111 0
32 42 52 97 117 0
32 42 52 102 117 0
31 41 51 111 121 0
34 44 54 119 124 0
33 43 58 63 73 0
33 43 58 63 83 0
33 43 58 63 118 0
32 42 57 67 82 0
32 42 57 67 112 0
33 43 58 73 98 0
33 43 58 73 108 0
32 42 57 82 97 0
33 43 58 83 98 0
32 42 57 82 102 0
33 43 58 83 108 0
32 42 57 97 112 0
33 43 58 98 118 0
32 42 57 102 112 0
33 43 58 108 118 0
34 44 64 69 94 0
34 44 64 69 109 0
31 41 61 71 76 0
33 43 63 73 93 0
31 41 61 71 101 0
33 43 63 73 103 0
31 41 61 76 96 0
31 41 61 76 121 0
33 43 63 83 93 0
34 44 64 84 94 0
33 43 63 83 103 0
34 44 64 84 109 0
33 43 63 93 118 0
34 44 64 94 124 0
31 41 61 96 101 0
33 43 63 103 118 0
31 41 61 101 121 0
34 44 64 109 124 0
34 44 69 79 94 0
34 44 69 79 109 0
32 42 67 82 87 0
32 42 67 82 117 0
32 42 67 87 112 0
34 44 69 94 119 0
34 44 69 109 119 0
32 42 67 112 117 0
31 41 71 76 86 0
31 41 71 76 111 0
31 41 71 86 101 0
33 43 73 93 98 0
33 43 73 93 108 0
33 43 73 98 103 0
33 43 73 103 108 0
31 41 71 101 111 0
34 44 79 84 94 0
34 44 79 84 109 0
31 41 76 86 96 0
31 41 76 86 121 0
34 44 79 94 124 0
31 41 76 96 111 0
34 44 79 109 124 0
31 41 76 111 121 0
32 42 82 87 97 0
32 42 82 87 102 0
33 43 83 93 98 0
33 43 83 93 108 0
34 44 84 94 119 0
33 43 83 98 103 0
32 42 82 97 117 0
33 43 83 103 108 0
32 42 82 102 117 0
34 44 84 109 119 0
31 41 86 96 101 0
32 42 87 97 112 0
32 42 87 102 112 0
31 41 86 101 121 0
33 43 93 98 118 0
33 43 93 108 118 0
34 44 94 119 124 0
31 41 96 101 111 0
33 43 98 103 118 0
32 42 97 112 117 0
33 43 103 108 118 0
32 42 102 112 117 0
31 41 101 111 121 0
34 44 109 119 124 0
34 49 54 59 69 0
34 49 54 59 84 0
34 49 54 59 124 0
31 46 51 61 66 0
33 48 53 63 73 0
33 48 53 63 83 0
31 46 51 61 91 0
31 46 51 61 116 0
33 48 53 63 118 0
31 46 51 66 86 0
34 49 54 69 99 0
31 46 51 66 111 0
34 49 54 69 114 0
33 48 53 73 98 0
33 48 53 73 108 0
33 48 53 83 98 0
34 49 54 84 99 0
33 48 53 83 108 0
34 49 54 84 114 0
31 46 51 86 91 0
31 46 51 86 116 0
31 46 51 91 111 0
33 48 53 98 118 0
34 49 54 99 124 0
33 48 53 108 118 0
31 46 51 111 116 0
34 49 54 114 124 0
32 47 57 67 72 0
32 47 57 67 77 0
34 49 59 69 94 0
32 47 57 67 107 0
34 49 59 69 109 0
32 47 57 72 97 0
32 47 57 72 102 0
32 47 57 77 97 0
32 47 57 77 102 0
34 49 59 84 94 0
34 49 59 84 109 0
34 49 59 94 124 0
32 47 57 97 107 0
32 47 57 102 107 0
34 49 59 109 124 0
31 46 61 66 76 0
31 46 61 66 101 0
33 48 63 73 88 0
33 48 63 73 123 0
31 46 61 76 91 0
31 46 61 76 116 0
33 48 63 83 88 0
33 48 63 83 123 0
33 48 63 88 118 0
31 46 61 91 101 0
31 46 61 101 116 0
33 48 63 118 123 0
32 47 67 72 87 0
32 47 67 72 117 0
31 46 66 76 86 0
32 47 67 77 87 0
31 46 66 76 111 0
32 47 67 77 117 0
31 46 66 86 101 0
32 47 67 87 107 0
34 49 69 94 99 0
34 49 69 94 114 0
34 49 69 99 109 0
31 46 66 101 111 0
34 49 69 109 114 0
32 47 67 107 117 0
32 47 72 87 97 0
33 48 73 88 98 0
32 47 72 87 102 0
33 48 73 88 108 0
32 47 72 97 117 0
33 48 73 98 123 0
32 47 72 102 117 0
33 48 73 108 123 0
31 46 76 86 91 0
32 47 77 87 97 0
32 47 77 87 102 0
31 46 76 86 116 0
31 46 76 91 111 0
32 47 77 97 117 0
32 47 77 102 117 0
31 46 76 111 116 0
33 48 83 88 98 0
33 48 83 88 108 0
34 49 84 94 99 0
34 49 84 94 114 0
34 49 84 99 109 0
33 48 83 98 123 0
34 49 84 109 114 0
33 48 83 108 123 0
31 46 86 91 101 0
32 47 87 97 107 0
33 48 88 98 118 0
32 47 87 102 107 0
31 46 86 101 116 0
33 48 88 108 118 0
34 49 94 99 124 0
31 46 91 101 111 0
34 49 94 114 124 0
32 47 97 107 117 0
34 49 99 109 124 0
33 48 98 118 123 0
32 47 102 107 117 0
31 46 101 111 116 0
34 49 109 114 124 0
33 48 108 118 123 0
34 54 59 64 69 0
33 53 58 63 73 0
33 53 58 63 83 0
34 54 59 64 84 0
33 53 58 63 118 0
34 54 59 64 124 0
32 52 57 67 72 0
32 52 57 67 77 0
34 54 59 69 79 0
32 52 57 67 107 0
34 54 59 69 119 0
32 52 57 72 97 0
33 53 58 73 98 0
32 52 57 72 102 0
33 53 58 73 108 0
34 54 59 79 84 0
32 52 57 77 97 0
32 52 57 77 102 0
34 54 59 79 124 0
33 53 58 83 98 0
33 53 58 83 108 0
34 54 59 84 119 0
32 52 57 97 107 0
33 53 58 98 118 0
32 52 57 102 107 0
33 53 58 108 118 0
34 54 59 119 124 0
31 51 61 66 71 0
31 51 61 66 96 0
34 54 64 69 99 0
34 54 64 69 114 0
31 51 61 66 121 0
31 51 61 71 91 0
33 53 63 73 93 0
33 53 63 73 103 0
31 51 61 71 116 0
33 53 63 83 93 0
34 54 64 84 99 0
33 53 63 83 103 0
34 54 64 84 114 0
31 51 61 91 96 0
33 53 63 93 118 0
31 51 61 91 121 0
31 51 61 96 116 0
34 54 64 99 124 0
33 53 63 103 118 0
34 54 64 114 124 0
31 51 61 116 121 0
31 51 66 71 86 0
32 52 67 72 87 0
31 51 66 71 111 0
32 52 67 72 117 0
32 52 67 77 87 0
34 54 69 79 99 0
34 54 69 79 114 0
32 52 67 77 117 0
31 51 66 86 96 0
32 52 67 87 107 0
31 51 66 86 121 0
31 51 66 96 111 0
34 54 69 99 119 0
32 52 67 107 117 0
34 54 69 114 119 0
31 51 66 111 121 0
31 51 71 86 91 0
32 52 72 87 97 0
32 52 72 87 102 0
31 51 71 86 116 0
33 53 73 93 98 0
33 53 73 93 108 0
31 51 71 91 111 0
33 53 73 98 103 0
32 52 72 97 117 0
33 53 73 103 108 0
32 52 72 102 117 0
31 51 71 111 116 0
34 54 79 84 99 0
34 54 79 84 114 0
32 52 77 87 97 0
32 52 77 87 102 0
32 52 77 97 117 0
34 54 79 99 124 0
32 52 77 102 117 0
34 54 79 114 124 0
33 53 83 93 98 0
33 53 83 93 108 0
33 53 83 98 103 0
34 54 84 99 119 0
33 53 83 103 108 0
34 54 84 114 119 0
31 51 86 91 96 0
31 51 86 91 121 0
32 52 87 97 107 0
31 51 86 96 116 0
32 52 87 102 107 0
31 51 86 116 121 0
31 51 91 96 111 0
33 53 93 98 118 0
33 53 93 108 118 0
31 51 91 111 121 0
33 53 98 103 118 0
32 52 97 107 117 0
31 51 96 111 116 0
34 54 99 119 124 0
32 52 102 107 117 0
33 53 103 108 118 0
31 51 111 116 121 0
34 54 114 119 124 0
34 59 64 69 94 0
34 59 64 69 109 0
33 58 63 73 88 0
33 58 63 73 123 0
33 58 63 83 88 0
34 59 64 84 94 0
34 59 64 84 109 0
33 58 63 83 123 0
33 58 63 88 118 0
34 59 64 94 124 0
34 59 64 109 124 0
33 58 63 118 123 0
32 57 67 72 82 0
32 57 67 72 112 0
32 57 67 77 82 0
34 59 69 79 94 0
34 59 69 79 109 0
32 57 67 77 112 0
32 57 67 82 107 0
34 59 69 94 119 0
32 57 67 107 112 0
34 59 69 109 119 0
32 57 72 82 97 0
32 57 72 82 102 0
33 58 73 88 98 0
33 58 73 88 108 0
32 57 72 97 112 0
33 58 73 98 123 0
32 57 72 102 112 0
33 58 73 108 123 0
34 59 79 84 94 0
32 57 77 82 97 0
32 57 77 82 102 0
34 59 79 84 109 0
34 59 79 94 124 0
32 57 77 97 112 0
32 57 77 102 112 0
34 59 79 109 124 0
33 58 83 88 98 0
33 58 83 88 108 0
34 59 84 94 119 0
32 57 82 97 107 0
33 58 83 98 123 0
32 57 82 102 107 0
34 59 84 109 119 0
33 58 83 108 123 0
33 58 88 98 118 0
33 58 88 108 118 0
34 59 94 119 124 0
32 57 97 107 112 0
33 58 98 118 123 0
32 57 102 107 112 0
33 58 108 118 123 0
34 59 109 119 124 0
31 61 66 71 76 0
31 61 66 71 101 0
31 61 66 76 96 0
31 61 66 76 121 0
34 64 69 94 99 0
34 64 69 94 114 0
31 61 66 96 101 0
34 64 69 99 109 0
31 61 66 101 121 0
34 64 69 109 114 0
31 61 71 76 91 0
31 61 71 76 116 0
33 63 73 88 93 0
33 63 73 88 103 0
31 61 71 91 101 0
33 63 73 93 123 0
31 61 71 101 116 0
33 63 73 103 123 0
31 61 76 91 96 0
31 61 76 91 121 0
31 61 76 96 116 0
31 61 76 116 121 0
33 63 83 88 93 0
33 63 83 88 103 0
34 64 84 94 99 0
34 64 84 94 114 0
33 63 83 93 123 0
34 64 84 99 109 0
33 63 83 103 123 0
34 64 84 109 114 0
33 63 88 93 118 0
33 63 88 103 118 0
31 61 91 96 101 0
34 64 94 99 124 0
31 61 91 101 121 0
34 64 94 114 124 0
33 63 93 118 123 0
31 61 96 101 116 0
34 64 99 109 124 0
31 61 101 116 121 0
33 63 103 118 123 0
34 64 109 114 124 0
31 66 71 76 86 0
31 66 71 76 111 0
32 67 72 82 87 0
32 67 72 82 117 0
31 66 71 86 101 0
32 67 72 87 112 0
31 66 71 101 111 0
32 67 72 112 117 0
32 67 77 82 87 0
32 67 77 82 117 0
31 66 76 86 96 0
32 67 77 87 112 0
31 66 76 86 121 0
34 69 79 94 99 0
34 69 79 94 114 0
34 69 79 99 109 0
31 66 76 96 111 0
34 69 79 109 114 0
32 67 77 112 117 0
31 66 76 111 121 0
32 67 82 87 107 0
32 67 82 107 117 0
31 66 86 96 101 0
31 66 86 101 121 0
32 67 87 107 112 0
34 69 94 99 119 0
34 69 94 114 119 0
31 66 96 101 111 0
34 69 99 109 119 0
31 66 101 111 121 0
32 67 107 112 117 0
34 69 109 114 119 0
31 71 76 86 91 0
31 71 76 86 116 0
31 71 76 91 111 0
31 71 76 111 116 0
32 72 82 87 97 0
32 72 82 87 102 0
32 72 82 97 117 0
32 72 82 102 117 0
33 73 88 93 98 0
31 71 86 91 101 0
33 73 88 93 108 0
33 73 88 98 103 0
32 72 87 97 112 0
33 73 88 103 108 0
32 72 87 102 112 0
31 71 86 101 116 0
33 73 93 98 123 0
31 71 91 101 111 0
33 73 93 108 123 0
33 73 98 103 123 0
32 72 97 112 117 0
33 73 103 108 123 0
31 71 101 111 116 0
32 72 102 112 117 0
32 77 82 87 97 0
32 77 82 87 102 0
34 79 84 94 99 0
34 79 84 94 114 0
34 79 84 99 109 0
32 77 82 97 117 0
32 77 82 102 117 0
34 79 84 109 114 0
31 76 86 91 96 0
31 76 86 91 121 0
32 77 87 97 112 0
31 76 86 96 116 0
32 77 87 102 112 0
31 76 86 116 121 0
31 76 91 96 111 0
34 79 94 99 124 0
31 76 91 111 121 0
34 79 94 114 124 0
34 79 99 109 124 0
31 76 96 111 116 0
32 77 97 112 117 0
32 77 102 112 117 0
34 79 109 114 124 0
31 76 111 116 121 0
33 83 88 93 98 0
33 83 88 93 108 0
33 83 88 98 103 0
32 82 87 97 107 0
32 82 87 102 107 0
33 83 88 103 108 0
34 84 94 99 119 0
33 83 93 98 123 0
33 83 93 108 123 0
34 84 94 114 119 0
33 83 98 103 123 0
32 82 97 107 117 0
34 84 99 109 119 0
32 82 102 107 117 0
33 83 103 108 123 0
34 84 109 114 119 0
31 86 91 96 101 0
33 88 93 98 118 0
31 86 91 101 121 0
33 88 93 108 118 0
31 86 96 101 116 0
33 88 98 103 118 0
32 87 97 107 112 0
32 87 102 107 112 0
33 88 103 108 118 0
31 86 101 116 121 0
31 91 96 101 111 0
33 93 98 118 123 0
34 94 99 119 124 0
31 91 101 111 121 0
33 93 108 118 123 0
34 94 114 119 124 0
31 96 101 111 116 0
33 98 103 118 123 0
32 97 107 112 117 0
34 99 109 119 124 0
32 102 107 112 117 0
33 103 108 118 123 0
31 101 111 116 121 0
34 109 114 119 124 0
36 41 46 51 56 0
36 41 46 51 81 0
36 41 46 51 106 0
37 42 47 57 62 0
36 41 46 56 76 0
37 42 47 57 92 0
36 41 46 56 101 0
37 42 47 57 122 0
38 43 48 63 68 0
38 43 48 63 78 0
37 42 47 62 87 0
38 43 48 63 113 0
37 42 47 62 117 0
39 44 49 69 74 0
39 44 49 69 89 0
38 43 48 68 98 0
39 44 49 69 104 0
38 43 48 68 108 0
39 44 49 74 84 0
39 44 49 74 124 0
36 41 46 76 81 0
38 43 48 78 98 0
36 41 46 76 106 0
38 43 48 78 108 0
39 44 49 84 89 0
36 41 46 81 101 0
39 44 49 84 104 0
37 42 47 87 92 0
37 42 47 87 122 0
39 44 49 89 124 0
37 42 47 92 117 0
38 43 48 98 113 0
36 41 46 101 106 0
39 44 49 104 124 0
38 43 48 108 113 0
37 42 47 117 122 0
37 42 52 57 62 0
36 41 51 56 71 0
37 42 52 57 92 0
36 41 51 56 96 0
36 41 51 56 121 0
37 42 52 57 122 0
37 42 52 62 87 0
37 42 52 62 117 0
36 41 51 71 81 0
36 41 51 71 106 0
36 41 51 81 96 0
36 41 51 81 121 0
37 42 52 87 92 0
37 42 52 87 122 0
37 42 52 92 117 0
36 41 51 96 106 0
36 41 51 106 121 0
37 42 52 117 122 0
38 43 58 63 68 0
38 43 58 63 78 0
37 42 57 62 82 0
37 42 57 62 112 0
38 43 58 63 113 0
38 43 58 68 98 0
38 43 58 68 108 0
36 41 56 71 76 0
36 41 56 71 101 0
36 41 56 76 96 0
38 43 58 78 98 0
38 43 58 78 108 0
36 41 56 76 121 0
37 42 57 82 92 0
37 42 57 82 122 0
37 42 57 92 112 0
36 41 56 96 101 0
38 43 58 98 113 0
36 41 56 101 121 0
38 43 58 108 113 0
37 42 57 112 122 0
39 44 64 69 74 0
39 44 64 69 89 0
38 43 63 68 93 0
38 43 63 68 103 0
39 44 64 69 104 0
39 44 64 74 84 0
39 44 64 74 124 0
38 43 63 78 93 0
38 43 63 78 103 0
37 42 62 82 87 0
39 44 64 84 89 0
39 44 64 84 104 0
37 42 62 82 117 0
37 42 62 87 112 0
39 44 64 89 124 0
38 43 63 93 113 0
38 43 63 103 113 0
39 44 64 104 124 0
37 42 62 112 117 0
39 44 69 74 79 0
39 44 69 74 119 0
39 44 69 79 89 0
39 44 69 79 104 0
39 44 69 89 119 0
38 43 68 93 98 0
38 43 68 93 108 0
38 43 68 98 103 0
38 43 68 103 108 0
39 44 69 104 119 0
36 41 71 76 81 0
39 44 74 79 84 0
36 41 71 76 106 0
39 44 74 79 124 0
36 41 71 81 101 0
39 44 74 84 119 0
36 41 71 101 106 0
39 44 74 119 124 0
39 44 79 84 89 0
36 41 76 81 96 0
39 44 79 84 104 0
36 41 76 81 121 0
39 44 79 89 124 0
38 43 78 93 98 0
38 43 78 93 108 0
38 43 78 98 103 0
36 41 76 96 106 0
38 43 78 103 108 0
39 44 79 104 124 0
36 41 76 106 121 0
37 42 82 87 92 0
39 44 84 89 119 0
37 42 82 87 122 0
37 42 82 92 117 0
36 41 81 96 101 0
39 44 84 104 119 0
36 41 81 101 121 0
37 42 82 117 122 0
37 42 87 92 112 0
37 42 87 112 122 0
39 44 89 119 124 0
38 43 93 98 113 0
38 43 93 108 113 0
37 42 92 112 117 0
36 41 96 101 106 0
38 43 98 103 113 0
38 43 103 108 113 0
36 41 101 106 121 0
39 44 104 119 124 0
37 42 112 117 122 0
36 46 51 56 66 0
36 46 51 56 91 0
36 46 51 56 116 0
38 48 53 63 68 0
38 48 53 63 78 0
38 48 53 63 113 0
36 46 51 66 81 0
38 48 53 68 98 0
36 46 51 66 106 0
38 48 53 68 108 0
38 48 53 78 98 0
38 48 53 78 108 0
36 46 51 81 91 0
36 46 51 81 116 0
36 46 51 91 106 0
38 48 53 98 113 0
38 48 53 108 113 0
36 46 51 106 116 0
37 47 57 62 72 0
37 47 57 62 77 0
37 47 57 62 107 0
39 49 59 69 74 0
36 46 56 66 76 0
39 49 59 69 89 0
36 46 56 66 101 0
39 49 59 69 104 0
39 49 59 74 84 0
37 47 57 72 92 0
37 47 57 72 122 0
39 49 59 74 124 0
36 46 56 76 91 0
37 47 57 77 92 0
36 46 56 76 116 0
37 47 57 77 122 0
39 49 59 84 89 0
39 49 59 84 104 0
39 49 59 89 124 0
36 46 56 91 101 0
37 47 57 92 107 0
36 46 56 101 116 0
39 49 59 104 124 0
37 47 57 107 122 0
38 48 63 68 88 0
38 48 63 68 123 0
37 47 62 72 87 0
37 47 62 72 117 0
37 47 62 77 87 0
38 48 63 78 88 0
37 47 62 77 117 0
38 48 63 78 123 0
37 47 62 87 107 0
38 48 63 88 113 0
37 47 62 107 117 0
38 48 63 113 123 0
39 49 69 74 99 0
39 49 69 74 114 0
36 46 66 76 81 0
36 46 66 76 106 0
36 46 66 81 101 0
38 48 68 88 98 0
39 49 69 89 99 0
38 48 68 88 108 0
39 49 69 89 114 0
39 49 69 99 104 0
38 48 68 98 123 0
36 46 66 101 106 0
39 49 69 104 114 0
38 48 68 108 123 0
39 49 74 84 99 0
39 49 74 84 114 0
37 47 72 87 92 0
37 47 72 87 122 0
37 47 72 92 117 0
39 49 74 99 124 0
39 49 74 114 124 0
37 47 72 117 122 0
36 46 76 81 91 0
36 46 76 81 116 0
37 47 77 87 92 0
38 48 78 88 98 0
38 48 78 88 108 0
37 47 77 87 122 0
36 46 76 91 106 0
37 47 77 92 117 0
38 48 78 98 123 0
36 46 76 106 116 0
38 48 78 108 123 0
37 47 77 117 122 0
39 49 84 89 99 0
39 49 84 89 114 0
36 46 81 91 101 0
39 49 84 99 104 0
39 49 84 104 114 0
36 46 81 101 116 0
37 47 87 92 107 0
38 48 88 98 113 0
39 49 89 99 124 0
38 48 88 108 113 0
37 47 87 107 122 0
39 49 89 114 124 0
36 46 91 101 106 0
37 47 92 107 117 0
39 49 99 104 124 0
38 48 98 113 123 0
36 46 101 106 116 0
39 49 104 114 124 0
38 48 108 113 123 0
37 47 107 117 122 0
38 53 58 63 68 0
37 52 57 62 72 0
37 52 57 62 77 0
38 53 58 63 78 0
37 52 57 62 107 0
38 53 58 63 113 0
36 51 56 66 71 0
36 51 56 66 96 0
38 53 58 68 98 0
38 53 58 68 108 0
36 51 56 66 121 0
36 51 56 71 91 0
37 52 57 72 92 0
36 51 56 71 116 0
37 52 57 72 122 0
37 52 57 77 92 0
38 53 58 78 98 0
38 53 58 78 108 0
37 52 57 77 122 0
36 51 56 91 96 0
37 52 57 92 107 0
36 51 56 91 121 0
38 53 58 98 113 0
36 51 56 96 116 0
38 53 58 108 113 0
37 52 57 107 122 0
36 51 56 116 121 0
38 53 63 68 93 0
38 53 63 68 103 0
37 52 62 72 87 0
37 52 62 72 117 0
37 52 62 77 87 0
38 53 63 78 93 0
38 53 63 78 103 0
37 52 62 77 117 0
37 52 62 87 107 0
38 53 63 93 113 0
38 53 63 103 113 0
37 52 62 107 117 0
36 51 66 71 81 0
36 51 66 71 106 0
36 51 66 81 96 0
36 51 66 81 121 0
38 53 68 93 98 0
38 53 68 93 108 0
38 53 68 98 103 0
36 51 66 96 106 0
38 53 68 103 108 0
36 51 66 106 121 0
36 51 71 81 91 0
36 51 71 81 116 0
37 52 72 87 92 0
37 52 72 87 122 0
36 51 71 91 106 0
37 52 72 92 117 0
36 51 71 106 116 0
37 52 72 117 122 0
37 52 77 87 92 0
37 52 77 87 122 0
38 53 78 93 98 0
38 53 78 93 108 0
37 52 77 92 117 0
38 53 78 98 103 0
38 53 78 103 108 0
37 52 77 117 122 0
36 51 81 91 96 0
36 51 81 91 121 0
36 51 81 96 116 0
36 51 81 116 121 0
37 52 87 92 107 0
37 52 87 107 122 0
36 51 91 96 106 0
38 53 93 98 113 0
38 53 93 108 113 0
37 52 92 107 117 0
36 51 91 106 121 0
38 53 98 103 113 0
36 51 96 106 116 0
38 53 103 108 113 0
36 51 106 116 121 0
37 52 107 117 122 0
39 59 64 69 74 0
38 58 63 68 88 0
39 59 64 69 89 0
39 59 64 69 104 0
38 58 63 68 123 0
37 57 62 72 82 0
39 59 64 74 84 0
37 57 62 72 112 0
39 59 64 74 124 0
37 57 62 77 82 0
38 58 63 78 88 0
37 57 62 77 112 0
38 58 63 78 123 0
39 59 64 84 89 0
39 59 64 84 104 0
37 57 62 82 107 0
38 58 63 88 113 0
39 59 64 89 124 0
39 59 64 104 124 0
37 57 62 107 112 0
38 58 63 113 123 0
36 56 66 71 76 0
39 59 69 74 79 0
36 56 66 71 101 0
39 59 69 74 119 0
39 59 69 79 89 0
36 56 66 76 96 0
39 59 69 79 104 0
36 56 66 76 121 0
38 58 68 88 98 0
38 58 68 88 108 0
39 59 69 89 119 0
36 56 66 96 101 0
38 58 68 98 123 0
39 59 69 104 119 0
36 56 66 101 121 0
38 58 68 108 123 0
39 59 74 79 84 0
36 56 71 76 91 0
36 56 71 76 116 0
39 59 74 79 124 0
37 57 72 82 92 0
39 59 74 84 119 0
37 57 72 82 122 0
36 56 71 91 101 0
37 57 72 92 112 0
36 56 71 101 116 0
37 57 72 112 122 0
39 59 74 119 124 0
39 59 79 84 89 0
37 57 77 82 92 0
39 59 79 84 104 0
37 57 77 82 122 0
38 58 78 88 98 0
38 58 78 88 108 0
39 59 79 89 124 0
36 56 76 91 96 0
37 57 77 92 112 0
36 56 76 91 121 0
36 56 76 96 116 0
38 58 78 98 123 0
39 59 79 104 124 0
38 58 78 108 123 0
37 57 77 112 122 0
36 56 76 116 121 0
39 59 84 89 119 0
37 57 82 92 107 0
39 59 84 104 119 0
37 57 82 107 122 0
38 58 88 98 113 0
38 58 88 108 113 0
39 59 89 119 124 0
36 56 91 96 101 0
36 56 91 101 121 0
37 57 92 107 112 0
36 56 96 101 116 0
38 58 98 113 123 0
36 56 101 116 121 0
39 59 104 119 124 0
37 57 107 112 122 0
38 58 108 113 123 0
39 64 69 74 99 0
39 64 69 74 114 0
38 63 68 88 93 0
39 64 69 89 99 0
38 63 68 88 103 0
39 64 69 89 114 0
38 63 68 93 123 0
39 64 69 99 104 0
39 64 69 104 114 0
38 63 68 103 123 0
37 62 72 82 87 0
39 64 74 84 99 0
39 64 74 84 114 0
37 62 72 82 117 0
37 62 72 87 112 0
39 64 74 99 124 0
37 62 72 112 117 0
39 64 74 114 124 0
37 62 77 82 87 0
37 62 77 82 117 0
38 63 78 88 93 0
38 63 78 88 103 0
37 62 77 87 112 0
38 63 78 93 123 0
38 63 78 103 123 0
37 62 77 112 117 0
39 64 84 89 99 0
37 62 82 87 107 0
39 64 84 89 114 0
39 64 84 99 104 0
39 64 84 104 114 0
37 62 82 107 117 0
38 63 88 93 113 0
39 64 89 99 124 0
38 63 88 103 113 0
37 62 87 107 112 0
39 64 89 114 124 0
38 63 93 113 123 0
39 64 99 104 124 0
38 63 103 113 123 0
39 64 104 114 124 0
37 62 107 112 117 0
36 66 71 76 81 0
39 69 74 79 99 0
36 66 71 76 106 0
39 69 74 79 114 0
36 66 71 81 101 0
39 69 74 99 119 0
36 66 71 101 106 0
39 69 74 114 119 0
36 66 76 81 96 0
36 66 76 81 121 0
39 69 79 89 99 0
39 69 79 89 114 0
39 69 79 99 104 0
36 66 76 96 106 0
39 69 79 104 114 0
36 66 76 106 121 0
36 66 81 96 101 0
36 66 81 101 121 0
38 68 88 93 98 0
38 68 88 93 108 0
38 68 88 98 103 0
39 69 89 99 119 0
38 68 88 103 108 0
39 69 89 114 119 0
38 68 93 98 123 0
38 68 93 108 123 0
36 66 96 101 106 0
39 69 99 104 119 0
38 68 98 103 123 0
36 66 101 106 121 0
38 68 103 108 123 0
39 69 104 114 119 0
36 71 76 81 91 0
39 74 79 84 99 0
39 74 79 84 114 0
36 71 76 81 116 0
36 71 76 91 106 0
39 74 79 99 124 0
36 71 76 106 116 0
39 74 79 114 124 0
37 72 82 87 92 0
37 72 82 87 122 0
36 71 81 91 101 0
37 72 82 92 117 0
39 74 84 99 119 0
36 71 81 101 116 0
39 74 84 114 119 0
37 72 82 117 122 0
37 72 87 92 112 0
37 72 87 112 122 0
36 71 91 101 106 0
37 72 92 112 117 0
39 74 99 119 124 0
36 71 101 106 116 0
37 72 112 117 122 0
39 74 114 119 124 0
37 77 82 87 92 0
39 79 84 89 99 0
39 79 84 89 114 0
37 77 82 87 122 0
36 76 81 91 96 0
37 77 82 92 117 0
36 76 81 91 121 0
39 79 84 99 104 0
36 76 81 96 116 0
39 79 84 104 114 0
36 76 81 116 121 0
37 77 82 117 122 0
38 78 88 93 98 0
38 78 88 93 108 0
37 77 87 92 112 0
38 78 88 98 103 0
39 79 89 99 124 0
38 78 88 103 108 0
37 77 87 112 122 0
39 79 89 114 124 0
36 76 91 96 106 0
38 78 93 98 123 0
36 76 91 106 121 0
38 78 93 108 123 0
37 77 92 112 117 0
38 78 98 103 123 0
39 79 99 104 124 0
36 76 96 106 116 0
38 78 103 108 123 0
39 79 104 114 124 0
36 76 106 116 121 0
37 77 112 117 122 0
37 82 87 92 107 0
39 84 89 99 119 0
37 82 87 107 122 0
39 84 89 114 119 0
36 81 91 96 101 0
36 81 91 101 121 0
37 82 92 107 117 0
36 81 96 101 116 0
39 84 99 104 119 0
39 84 104 114 119 0
36 81 101 116 121 0
37 82 107 117 122 0
38 88 93 98 113 0
37 87 92 107 112 0
38 88 93 108 113 0
38 88 98 103 113 0
39 89 99 119 124 0
38 88 103 108 113 0
37 87 107 112 122 0
39 89 114 119 124 0
36 91 96 101 106 0
38 93 98 113 123 0
36 91 101 106 121 0
37 92 107 112 117 0
38 93 108 113 123 0
36 96 101 106 116 0
38 98 103 113 123 0
39 99 104 119 124 0
38 103 108 113 123 0
36 101 106 116 121 0
39 104 114 119 124 0
37 107 112 117 122 0
41 46 51 56 61 0
41 46 51 56 86 0
41 46 51 56 111 0
41 46 51 61 81 0
41 46 51 61 106 0
44 49 54 69 74 0
44 49 54 69 89 0
44 49 54 69 104 0
44 49 54 74 84 0
44 49 54 74 124 0
41 46 51 81 86 0
44 49 54 84 89 0
44 49 54 84 104 0
41 46 51 81 111 0
41 46 51 86 106 0
44 49 54 89 124 0
44 49 54 104 124 0
41 46 51 106 111 0
42 47 57 62 67 0
41 46 56 61 76 0
42 47 57 62 97 0
41 46 56 61 101 0
42 47 57 62 102 0
42 47 57 67 92 0
42 47 57 67 122 0
41 46 56 76 86 0
41 46 56 76 111 0
41 46 56 86 101 0
42 47 57 92 97 0
42 47 57 92 102 0
42 47 57 97 122 0
41 46 56 101 111 0
42 47 57 102 122 0
43 48 63 68 73 0
43 48 63 68 83 0
42 47 62 67 87 0
42 47 62 67 117 0
43 48 63 68 118 0
43 48 63 73 78 0
43 48 63 73 113 0
41 46 61 76 81 0
43 48 63 78 83 0
41 46 61 76 106 0
43 48 63 78 118 0
41 46 61 81 101 0
43 48 63 83 113 0
42 47 62 87 97 0
42 47 62 87 102 0
42 47 62 97 117 0
41 46 61 101 106 0
42 47 62 102 117 0
43 48 63 113 118 0
44 49 69 74 94 0
43 48 68 73 98 0
43 48 68 73 108 0
44 49 69 74 109 0
43 48 68 83 98 0
43 48 68 83 108 0
42 47 67 87 92 0
44 49 69 89 94 0
44 49 69 89 109 0
42 47 67 87 122 0
44 49 69 94 104 0
42 47 67 92 117 0
43 48 68 98 118 0
44 49 69 104 109 0
43 48 68 108 118 0
42 47 67 117 122 0
43 48 73 78 98 0
43 48 73 78 108 0
44 49 74 84 94 0
44 49 74 84 109 0
44 49 74 94 124 0
43 48 73 98 113 0
43 48 73 108 113 0
44 49 74 109 124 0
41 46 76 81 86 0
43 48 78 83 98 0
43 48 78 83 108 0
41 46 76 81 111 0
41 46 76 86 106 0
43 48 78 98 118 0
41 46 76 106 111 0
43 48 78 108 118 0
44 49 84 89 94 0
41 46 81 86 101 0
44 49 84 89 109 0
44 49 84 94 104 0
43 48 83 98 113 0
44 49 84 104 109 0
41 46 81 101 111 0
43 48 83 108 113 0
42 47 87 92 97 0
42 47 87 92 102 0
44 49 89 94 124 0
42 47 87 97 122 0
41 46 86 101 106 0
42 47 87 102 122 0
44 49 89 109 124 0
42 47 92 97 117 0
42 47 92 102 117 0
44 49 94 104 124 0
43 48 98 113 118 0
42 47 97 117 122 0
41 46 101 106 111 0
44 49 104 109 124 0
42 47 102 117 122 0
43 48 108 113 118 0
42 52 57 62 67 0
41 51 56 61 71 0
41 51 56 61 96 0
42 52 57 62 97 0
42 52 57 62 102 0
41 51 56 61 121 0
42 52 57 67 92 0
42 52 57 67 122 0
41 51 56 71 86 0
41 51 56 71 111 0
41 51 56 86 96 0
41 51 56 86 121 0
42 52 57 92 97 0
42 52 57 92 102 0
41 51 56 96 111 0
42 52 57 97 122 0
42 52 57 102 122 0
41 51 56 111 121 0
44 54 64 69 74 0
42 52 62 67 87 0
44 54 64 69 89 0
44 54 64 69 104 0
42 52 62 67 117 0
41 51 61 71 81 0
44 54 64 74 84 0
41 51 61 71 106 0
44 54 64 74 124 0
44 54 64 84 89 0
41 51 61 81 96 0
44 54 64 84 104 0
41 51 61 81 121 0
42 52 62 87 97 0
42 52 62 87 102 0
44 54 64 89 124 0
41 51 61 96 106 0
42 52 62 97 117 0
42 52 62 102 117 0
44 54 64 104 124 0
41 51 61 106 121 0
44 54 69 74 79 0
44 54 69 74 119 0
44 54 69 79 89 0
44 54 69 79 104 0
42 52 67 87 92 0
44 54 69 89 119 0
42 52 67 87 122 0
42 52 67 92 117 0
44 54 69 104 119 0
42 52 67 117 122 0
44 54 74 79 84 0
44 54 74 79 124 0
41 51 71 81 86 0
41 51 71 81 111 0
44 54 74 84 119 0
41 51 71 86 106 0
41 51 71 106 111 0
44 54 74 119 124 0
44 54 79 84 89 0
44 54 79 84 104 0
44 54 79 89 124 0
44 54 79 104 124 0
41 51 81 86 96 0
44 54 84 89 119 0
41 51 81 86 121 0
41 51 81 96 111 0
44 54 84 104 119 0
41 51 81 111 121 0
42 52 87 92 97 0
42 52 87 92 102 0
41 51 86 96 106 0
42 52 87 97 122 0
42 52 87 102 122 0
41 51 86 106 121 0
44 54 89 119 124 0
42 52 92 97 117 0
42 52 92 102 117 0
41 51 96 106 111 0
42 52 97 117 122 0
42 52 102 117 122 0
44 54 104 119 124 0
41 51 106 111 121 0
43 58 63 68 73 0
42 57 62 67 82 0
43 58 63 68 83 0
42 57 62 67 112 0
43 58 63 68 118 0
41 56 61 71 76 0
43 58 63 73 78 0
41 56 61 71 101 0
43 58 63 73 113 0
43 58 63 78 83 0
41 56 61 76 96 0
43 58 63 78 118 0
41 56 61 76 121 0
42 57 62 82 97 0
42 57 62 82 102 0
43 58 63 83 113 0
41 56 61 96 101 0
42 57 62 97 112 0
42 57 62 102 112 0
41 56 61 101 121 0
43 58 63 113 118 0
43 58 68 73 98 0
43 58 68 73 108 0
42 57 67 82 92 0
43 58 68 83 98 0
43 58 68 83 108 0
42 57 67 82 122 0
42 57 67 92 112 0
43 58 68 98 118 0
43 58 68 108 118 0
42 57 67 112 122 0
41 56 71 76 86 0
43 58 73 78 98 0
43 58 73 78 108 0
41 56 71 76 111 0
41 56 71 86 101 0
43 58 73 98 113 0
41 56 71 101 111 0
43 58 73 108 113 0
43 58 78 83 98 0
43 58 78 83 108 0
41 56 76 86 96 0
41 56 76 86 121 0
41 56 76 96 111 0
43 58 78 98 118 0
43 58 78 108 118 0
41 56 76 111 121 0
42 57 82 92 97 0
42 57 82 92 102 0
43 58 83 98 113 0
42 57 82 97 122 0
42 57 82 102 122 0
43 58 83 108 113 0
41 56 86 96 101 0
41 56 86 101 121 0
42 57 92 97 112 0
42 57 92 102 112 0
41 56 96 101 111 0
43 58 98 113 118 0
42 57 97 112 122 0
41 56 101 111 121 0
42 57 102 112 122 0
43 58 108 113 118 0
43 63 68 73 93 0
44 64 69 74 94 0
43 63 68 73 103 0
44 64 69 74 109 0
42 62 67 82 87 0
43 63 68 83 93 0
43 63 68 83 103 0
42 62 67 82 117 0
44 64 69 89 94 0
44 64 69 89 109 0
42 62 67 87 112 0
44 64 69 94 104 0
43 63 68 93 118 0
44 64 69 104 109 0
43 63 68 103 118 0
42 62 67 112 117 0
41 61 71 76 81 0
43 63 73 78 93 0
43 63 73 78 103 0
41 61 71 76 106 0
44 64 74 84 94 0
41 61 71 81 101 0
44 64 74 84 109 0
43 63 73 93 113 0
44 64 74 94 124 0
41 61 71 101 106 0
43 63 73 103 113 0
44 64 74 109 124 0
43 63 78 83 93 0
41 61 76 81 96 0
43 63 78 83 103 0
41 61 76 81 121 0
43 63 78 93 118 0
41 61 76 96 106 0
43 63 78 103 118 0
41 61 76 106 121 0
44 64 84 89 94 0
42 62 82 87 97 0
42 62 82 87 102 0
44 64 84 89 109 0
44 64 84 94 104 0
43 63 83 93 113 0
41 61 81 96 101 0
42 62 82 97 117 0
44 64 84 104 109 0
43 63 83 103 113 0
42 62 82 102 117 0
41 61 81 101 121 0
44 64 89 94 124 0
42 62 87 97 112 0
42 62 87 102 112 0
44 64 89 109 124 0
44 64 94 104 124 0
43 63 93 113 118 0
41 61 96 101 106 0
42 62 97 112 117 0
41 61 101 106 121 0
44 64 104 109 124 0
42 62 102 112 117 0
43 63 103 113 118 0
44 69 74 79 94 0
44 69 74 79 109 0
43 68 73 93 98 0
43 68 73 93 108 0
44 69 74 94 119 0
43 68 73 98 103 0
43 68 73 103 108 0
44 69 74 109 119 0
44 69 79 89 94 0
44 69 79 89 109 0
44 69 79 94 104 0
44 69 79 104 109 0
42 67 82 87 92 0
42 67 82 87 122 0
43 68 83 93 98 0
43 68 83 93 108 0
42 67 82 92 117 0
43 68 83 98 103 0
43 68 83 103 108 0
42 67 82 117 122 0
42 67 87 92 112 0
44 69 89 94 119 0
44 69 89 109 119 0
42 67 87 112 122 0
43 68 93 98 118 0
44 69 94 104 119 0
43 68 93 108 118 0
42 67 92 112 117 0
43 68 98 103 118 0
43 68 103 108 118 0
44 69 104 109 119 0
42 67 112 117 122 0
41 71 76 81 86 0
44 74 79 84 94 0
44 74 79 84 109 0
41 71 76 81 111 0
41 71 76 86 106 0
43 73 78 93 98 0
43 73 78 93 108 0
44 74 79 94 124 0
43 73 78 98 103 0
43 73 78 103 108 0
41 71 76 106 111 0
44 74 79 109 124 0
41 71 81 86 101 0
44 74 84 94 119 0
41 71 81 101 111 0
44 74 84 109 119 0
41 71 86 101 106 0
43 73 93 98 113 0
43 73 93 108 113 0
44 74 94 119 124 0
43 73 98 103 113 0
41 71 101 106 111 0
43 73 103 108 113 0
44 74 109 119 124 0
44 79 84 89 94 0
41 76 81 86 96 0
44 79 84 89 109 0
41 76 81 86 121 0
43 78 83 93 98 0
44 79 84 94 104 0
43 78 83 93 108 0
43 78 83 98 103 0
41 76 81 96 111 0
43 78 83 103 108 0
44 79 84 104 109 0
41 76 81 111 121 0
44 79 89 94 124 0
41 76 86 96 106 0
41 76 86 106 121 0
44 79 89 109 124 0
43 78 93 98 118 0
44 79 94 104 124 0
43 78 93 108 118 0
43 78 98 103 118 0
41 76 96 106 111 0
43 78 103 108 118 0
44 79 104 109 124 0
41 76 106 111 121 0
42 82 87 92 97 0
42 82 87 92 102 0
44 84 89 94 119 0
41 81 86 96 101 0
42 82 87 97 122 0
41 81 86 101 121 0
42 82 87 102 122 0
44 84 89 109 119 0
43 83 93 98 113 0
42 82 92 97 117 0
42 82 92 102 117 0
44 84 94 104 119 0
43 83 93 108 113 0
41 81 96 101 111 0
43 83 98 103 113 0
42 82 97 117 122 0
43 83 103 108 113 0
44 84 104 109 119 0
41 81 101 111 121 0
42 82 102 117 122 0
42 87 92 97 112 0
42 87 92 102 112 0
44 89 94 119 124 0
41 86 96 101 106 0
42 87 97 112 122 0
41 86 101 106 121 0
42 87 102 112 122 0
44 89 109 119 124 0
42 92 97 112 117 0
43 93 98 113 118 0
42 92 102 112 117 0
44 94 104 119 124 0
43 93 108 113 118 0
41 96 101 106 111 0
43 98 103 113 118 0
42 97 112 117 122 0
43 103 108 113 118 0
41 101 106 111 121 0
44 104 109 119 124 0
42 102 112 117 122 0
46 51 56 61 66 0
46 51 56 61 91 0
46 51 56 61 116 0
49 54 59 69 74 0
46 51 56 66 86 0
49 54 59 69 89 0
49 54 59 69 104 0
46 51 56 66 111 0
49 54 59 74 84 0
49 54 59 74 124 0
49 54 59 84 89 0
49 54 59 84 104 0
46 51 56 86 91 0
46 51 56 86 116 0
49 54 59 89 124 0
46 51 56 91 111 0
49 54 59 104 124 0
46 51 56 111 116 0
48 53 63 68 73 0
46 51 61 66 81 0
48 53 63 68 83 0
46 51 61 66 106 0
48 53 63 68 118 0
48 53 63 73 78 0
48 53 63 73 113 0
48 53 63 78 83 0
48 53 63 78 118 0
46 51 61 81 91 0
48 53 63 83 113 0
46 51 61 81 116 0
46 51 61 91 106 0
46 51 61 106 116 0
48 53 63 113 118 0
48 53 68 73 98 0
49 54 69 74 99 0
48 53 68 73 108 0
49 54 69 74 114 0
46 51 66 81 86 0
48 53 68 83 98 0
48 53 68 83 108 0
46 51 66 81 111 0
49 54 69 89 99 0
46 51 66 86 106 0
49 54 69 89 114 0
49 54 69 99 104 0
48 53 68 98 118 0
49 54 69 104 114 0
46 51 66 106 111 0
48 53 68 108 118 0
48 53 73 78 98 0
48 53 73 78 108 0
49 54 74 84 99 0
49 54 74 84 114 0
48 53 73 98 113 0
49 54 74 99 124 0
48 53 73 108 113 0
49 54 74 114 124 0
48 53 78 83 98 0
48 53 78 83 108 0
48 53 78 98 118 0
48 53 78 108 118 0
46 51 81 86 91 0
49 54 84 89 99 0
49 54 84 89 114 0
46 51 81 86 116 0
46 51 81 91 111 0
49 54 84 99 104 0
48 53 83 98 113 0
49 54 84 104 114 0
48 53 83 108 113 0
46 51 81 111 116 0
46 51 86 91 106 0
49 54 89 99 124 0
46 51 86 106 116 0
49 54 89 114 124 0
46 51 91 106 111 0
49 54 99 104 124 0
48 53 98 113 118 0
49 54 104 114 124 0
46 51 106 111 116 0
48 53 108 113 118 0
47 57 62 67 72 0
46 56 61 66 76 0
47 57 62 67 77 0
46 56 61 66 101 0
47 57 62 67 107 0
47 57 62 72 97 0
47 57 62 72 102 0
46 56 61 76 91 0
47 57 62 77 97 0
47 57 62 77 102 0
46 56 61 76 116 0
46 56 61 91 101 0
47 57 62 97 107 0
47 57 62 102 107 0
46 56 61 101 116 0
47 57 67 72 92 0
49 59 69 74 94 0
49 59 69 74 109 0
47 57 67 72 122 0
46 56 66 76 86 0
47 57 67 77 92 0
46 56 66 76 111 0
47 57 67 77 122 0
49 59 69 89 94 0
46 56 66 86 101 0
49 59 69 89 109 0
49 59 69 94 104 0
47 57 67 92 107 0
49 59 69 104 109 0
46 56 66 101 111 0
47 57 67 107 122 0
49 59 74 84 94 0
49 59 74 84 109 0
47 57 72 92 97 0
47 57 72 92 102 0
49 59 74 94 124 0
47 57 72 97 122 0
47 57 72 102 122 0
49 59 74 109 124 0
46 56 76 86 91 0
46 56 76 86 116 0
47 57 77 92 97 0
47 57 77 92 102 0
46 56 76 91 111 0
47 57 77 97 122 0
47 57 77 102 122 0
46 56 76 111 116 0
49 59 84 89 94 0
49 59 84 89 109 0
49 59 84 94 104 0
49 59 84 104 109 0
46 56 86 91 101 0
49 59 89 94 124 0
46 56 86 101 116 0
49 59 89 109 124 0
47 57 92 97 107 0
47 57 92 102 107 0
46 56 91 101 111 0
49 59 94 104 124 0
47 57 97 107 122 0
47 57 102 107 122 0
49 59 104 109 124 0
46 56 101 111 116 0
47 62 67 72 87 0
48 63 68 73 88 0
47 62 67 72 117 0
48 63 68 73 123 0
46 61 66 76 81 0
47 62 67 77 87 0
46 61 66 76 106 0
47 62 67 77 117 0
48 63 68 83 88 0
46 61 66 81 101 0
48 63 68 83 123 0
47 62 67 87 107 0
48 63 68 88 118 0
46 61 66 101 106 0
47 62 67 107 117 0
48 63 68 118 123 0
48 63 73 78 88 0
48 63 73 78 123 0
47 62 72 87 97 0
47 62 72 87 102 0
48 63 73 88 113 0
47 62 72 97 117 0
47 62 72 102 117 0
48 63 73 113 123 0
48 63 78 83 88 0
46 61 76 81 91 0
46 61 76 81 116 0
48 63 78 83 123 0
47 62 77 87 97 0
47 62 77 87 102 0
48 63 78 88 118 0
46 61 76 91 106 0
47 62 77 97 117 0
47 62 77 102 117 0
46 61 76 106 116 0
48 63 78 118 123 0
48 63 83 88 113 0
46 61 81 91 101 0
46 61 81 101 116 0
48 63 83 113 123 0
47 62 87 97 107 0
47 62 87 102 107 0
48 63 88 113 118 0
46 61 91 101 106 0
47 62 97 107 117 0
46 61 101 106 116 0
47 62 102 107 117 0
48 63 113 118 123 0
47 67 72 87 92 0
48 68 73 88 98 0
48 68 73 88 108 0
47 67 72 87 122 0
49 69 74 94 99 0
49 69 74 94 114 0
47 67 72 92 117 0
49 69 74 99 109 0
48 68 73 98 123 0
49 69 74 109 114 0
48 68 73 108 123 0
47 67 72 117 122 0
46 66 76 81 86 0
46 66 76 81 111 0
47 67 77 87 92 0
46 66 76 86 106 0
47 67 77 87 122 0
47 67 77 92 117 0
46 66 76 106 111 0
47 67 77 117 122 0
48 68 83 88 98 0
46 66 81 86 101 0
48 68 83 88 108 0
48 68 83 98 123 0
46 66 81 101 111 0
48 68 83 108 123 0
49 69 89 94 99 0
47 67 87 92 107 0
49 69 89 94 114 0
49 69 89 99 109 0
48 68 88 98 118 0
46 66 86 101 106 0
49 69 89 109 114 0
48 68 88 108 118 0
47 67 87 107 122 0
49 69 94 99 104 0
49 69 94 104 114 0
47 67 92 107 117 0
49 69 99 104 109 0
48 68 98 118 123 0
46 66 101 106 111 0
49 69 104 109 114 0
47 67 107 117 122 0
48 68 108 118 123 0
48 73 78 88 98 0
48 73 78 88 108 0
48 73 78 98 123 0
48 73 78 108 123 0
49 74 84 94 99 0
49 74 84 94 114 0
49 74 84 99 109 0
49 74 84 109 114 0
47 72 87 92 97 0
47 72 87 92 102 0
48 73 88 98 113 0
47 72 87 97 122 0
47 72 87 102 122 0
48 73 88 108 113 0
47 72 92 97 117 0
49 74 94 99 124 0
47 72 92 102 117 0
49 74 94 114 124 0
49 74 99 109 124 0
48 73 98 113 123 0
47 72 97 117 122 0
47 72 102 117 122 0
48 73 108 113 123 0
49 74 109 114 124 0
46 76 81 86 91 0
48 78 83 88 98 0
48 78 83 88 108 0
46 76 81 86 116 0
46 76 81 91 111 0
48 78 83 98 123 0
48 78 83 108 123 0
46 76 81 111 116 0
47 77 87 92 97 0
47 77 87 92 102 0
46 76 86 91 106 0
48 78 88 98 118 0
47 77 87 97 122 0
47 77 87 102 122 0
46 76 86 106 116 0
48 78 88 108 118 0
47 77 92 97 117 0
47 77 92 102 117 0
46 76 91 106 111 0
47 77 97 117 122 0
48 78 98 118 123 0
47 77 102 117 122 0
46 76 106 111 116 0
48 78 108 118 123 0
49 84 89 94 99 0
46 81 86 91 101 0
49 84 89 94 114 0
49 84 89 99 109 0
48 83 88 98 113 0
46 81 86 101 116 0
48 83 88 108 113 0
49 84 89 109 114 0
49 84 94 99 104 0
46 81 91 101 111 0
49 84 94 104 114 0
49 84 99 104 109 0
48 83 98 113 123 0
49 84 104 109 114 0
46 81 101 111 116 0
48 83 108 113 123 0
47 87 92 97 107 0
49 89 94 99 124 0
46 86 91 101 106 0
47 87 92 102 107 0
49 89 94 114 124 0
47 87 97 107 122 0
49 89 99 109 124 0
48 88 98 113 118 0
46 86 101 106 116 0
47 87 102 107 122 0
48 88 108 113 118 0
49 89 109 114 124 0
49 94 99 104 124 0
47 92 97 107 117 0
46 91 101 106 111 0
47 92 102 107 117 0
49 94 104 114 124 0
49 99 104 109 124 0
47 97 107 117 122 0
48 98 113 118 123 0
46 101 106 111 116 0
49 104 109 114 124 0
47 102 107 117 122 0
48 108 113 118 123 0
51 56 61 66 71 0
52 57 62 67 72 0
53 58 63 68 73 0
54 59 64 69 74 0
52 57 62 67 77 0
53 58 63 68 83 0
54 59 64 69 89 0
51 56 61 66 96 0
54 59 64 69 104 0
52 57 62 67 107 0
53 58 63 68 118 0
51 56 61 66 121 0
53 58 63 73 78 0
54 59 64 74 84 0
51 56 61 71 91 0
52 57 62 72 97 0
52 57 62 72 102 0
53 58 63 73 113 0
51 56 61 71 116 0
54 59 64 74 124 0
53 58 63 78 83 0
52 57 62 77 97 0
52 57 62 77 102 0
53 58 63 78 118 0
54 59 64 84 89 0
54 59 64 84 104 0
53 58 63 83 113 0
54 59 64 89 124 0
51 56 61 91 96 0
51 56 61 91 121 0
52 57 62 97 107 0
51 56 61 96 116 0
52 57 62 102 107 0
54 59 64 104 124 0
53 58 63 113 118 0
51 56 61 116 121 0
54 59 69 74 79 0
51 56 66 71 86 0
52 57 67 72 92 0
53 58 68 73 98 0
53 58 68 73 108 0
51 56 66 71 111 0
54 59 69 74 119 0
52 57 67 72 122 0
54 59 69 79 89 0
52 57 67 77 92 0
54 59 69 79 104 0
52 57 67 77 122 0
53 58 68 83 98 0
53 58 68 83 108 0
51 56 66 86 96 0
54 59 69 89 119 0
51 56 66 86 121 0
52 57 67 92 107 0
51 56 66 96 111 0
53 58 68 98 118 0
54 59 69 104 119 0
53 58 68 108 118 0
52 57 67 107 122 0
51 56 66 111 121 0
54 59 74 79 84 0
53 58 73 78 98 0
53 58 73 78 108 0
54 59 74 79 124 0
54 59 74 84 119 0
51 56 71 86 91 0
51 56 71 86 116 0
52 57 72 92 97 0
52 57 72 92 102 0
51 56 71 91 111 0
53 58 73 98 113 0
52 57 72 97 122 0
52 57 72 102 122 0
53 58 73 108 113 0
51 56 71 111 116 0
54 59 74 119 124 0
54 59 79 84 89 0
53 58 78 83 98 0
54 59 79 84 104 0
53 58 78 83 108 0
54 59 79 89 124 0
52 57 77 92 97 0
52 57 77 92 102 0
53 58 78 98 118 0
52 57 77 97 122 0
52 57 77 102 122 0
54 59 79 104 124 0
53 58 78 108 118 0
54 59 84 89 119 0
53 58 83 98 113 0
54 59 84 104 119 0
53 58 83 108 113 0
51 56 86 91 96 0
51 56 86 91 121 0
51 56 86 96 116 0
51 56 86 116 121 0
54 59 89 119 124 0
52 57 92 97 107 0
51 56 91 96 111 0
52 57 92 102 107 0
51 56 91 111 121 0
52 57 97 107 122 0
51 56 96 111 116 0
53 58 98 113 118 0
52 57 102 107 122 0
54 59 104 119 124 0
53 58 108 113 118 0
51 56 111 116 121 0
51 61 66 71 81 0
52 62 67 72 87 0
53 63 68 73 93 0
54 64 69 74 99 0
53 63 68 73 103 0
51 61 66 71 106 0
54 64 69 74 114 0
52 62 67 72 117 0
52 62 67 77 87 0
52 62 67 77 117 0
53 63 68 83 93 0
51 61 66 81 96 0
53 63 68 83 103 0
51 61 66 81 121 0
54 64 69 89 99 0
52 62 67 87 107 0
54 64 69 89 114 0
53 63 68 93 118 0
54 64 69 99 104 0
51 61 66 96 106 0
54 64 69 104 114 0
53 63 68 103 118 0
52 62 67 107 117 0
51 61 66 106 121 0
53 63 73 78 93 0
53 63 73 78 103 0
51 61 71 81 91 0
54 64 74 84 99 0
54 64 74 84 114 0
51 61 71 81 116 0
52 62 72 87 97 0
52 62 72 87 102 0
51 61 71 91 106 0
53 63 73 93 113 0
52 62 72 97 117 0
54 64 74 99 124 0
53 63 73 103 113 0
52 62 72 102 117 0
51 61 71 106 116 0
54 64 74 114 124 0
53 63 78 83 93 0
53 63 78 83 103 0
52 62 77 87 97 0
52 62 77 87 102 0
53 63 78 93 118 0
52 62 77 97 117 0
52 62 77 102 117 0
53 63 78 103 118 0
54 64 84 89 99 0
54 64 84 89 114 0
51 61 81 91 96 0
53 63 83 93 113 0
51 61 81 91 121 0
54 64 84 99 104 0
51 61 81 96 116 0
53 63 83 103 113 0
54 64 84 104 114 0
51 61 81 116 121 0
52 62 87 97 107 0
54 64 89 99 124 0
52 62 87 102 107 0
54 64 89 114 124 0
51 61 91 96 106 0
51 61 91 106 121 0
53 63 93 113 118 0
54 64 99 104 124 0
51 61 96 106 116 0
52 62 97 107 117 0
52 62 102 107 117 0
53 63 103 113 118 0
54 64 104 114 124 0
51 61 106 116 121 0
54 69 74 79 99 0
54 69 74 79 114 0
51 66 71 81 86 0
51 66 71 81 111 0
52 67 72 87 92 0
51 66 71 86 106 0
52 67 72 87 122 0
53 68 73 93 98 0
53 68 73 93 108 0
52 67 72 92 117 0
53 68 73 98 103 0
54 69 74 99 119 0
53 68 73 103 108 0
51 66 71 106 111 0
54 69 74 114 119 0
52 67 72 117 122 0
52 67 77 87 92 0
54 69 79 89 99 0
54 69 79 89 114 0
52 67 77 87 122 0
52 67 77 92 117 0
54 69 79 99 104 0
54 69 79 104 114 0
52 67 77 117 122 0
51 66 81 86 96 0
51 66 81 86 121 0
53 68 83 93 98 0
53 68 83 93 108 0
53 68 83 98 103 0
51 66 81 96 111 0
53 68 83 103 108 0
51 66 81 111 121 0
52 67 87 92 107 0
51 66 86 96 106 0
54 69 89 99 119 0
51 66 86 106 121 0
52 67 87 107 122 0
54 69 89 114 119 0
53 68 93 98 118 0
52 67 92 107 117 0
53 68 93 108 118 0
53 68 98 103 118 0
54 69 99 104 119 0
51 66 96 106 111 0
53 68 103 108 118 0
54 69 104 114 119 0
51 66 106 111 121 0
52 67 107 117 122 0
54 74 79 84 99 0
54 74 79 84 114 0
53 73 78 93 98 0
53 73 78 93 108 0
53 73 78 98 103 0
54 74 79 99 124 0
53 73 78 103 108 0
54 74 79 114 124 0
51 71 81 86 91 0
51 71 81 86 116 0
51 71 81 91 111 0
54 74 84 99 119 0
51 71 81 111 116 0
54 74 84 114 119 0
52 72 87 92 97 0
52 72 87 92 102 0
51 71 86 91 106 0
52 72 87 97 122 0
52 72 87 102 122 0
51 71 86 106 116 0
53 73 93 98 113 0
52 72 92 97 117 0
52 72 92 102 117 0
51 71 91 106 111 0
53 73 93 108 113 0
53 73 98 103 113 0
52 72 97 117 122 0
54 74 99 119 124 0
53 73 103 108 113 0
52 72 102 117 122 0
51 71 106 111 116 0
54 74 114 119 124 0
54 79 84 89 99 0
54 79 84 89 114 0
53 78 83 93 98 0
53 78 83 93 108 0
53 78 83 98 103 0
54 79 84 99 104 0
53 78 83 103 108 0
54 79 84 104 114 0
52 77 87 92 97 0
52 77 87 92 102 0
52 77 87 97 122 0
54 79 89 99 124 0
52 77 87 102 122 0
54 79 89 114 124 0
52 77 92 97 117 0
53 78 93 98 118 0
52 77 92 102 117 0
53 78 93 108 118 0
53 78 98 103 118 0
54 79 99 104 124 0
52 77 97 117 122 0
53 78 103 108 118 0
54 79 104 114 124 0
52 77 102 117 122 0
51 81 86 91 96 0
51 81 86 91 121 0
51 81 86 96 116 0
54 84 89 99 119 0
54 84 89 114 119 0
51 81 86 116 121 0
51 81 91 96 111 0
53 83 93 98 113 0
53 83 93 108 113 0
51 81 91 111 121 0
53 83 98 103 113 0
54 84 99 104 119 0
51 81 96 111 116 0
53 83 103 108 113 0
54 84 104 114 119 0
51 81 111 116 121 0
51 86 91 96 106 0
52 87 92 97 107 0
52 87 92 102 107 0
51 86 91 106 121 0
51 86 96 106 116 0
52 87 97 107 122 0
54 89 99 119 124 0
52 87 102 107 122 0
51 86 106 116 121 0
54 89 114 119 124 0
51 91 96 106 111 0
52 92 97 107 117 0
53 93 98 113 118 0
52 92 102 107 117 0
53 93 108 113 118 0
51 91 106 111 121 0
53 98 103 113 118 0
54 99 104 119 124 0
51 96 106 111 116 0
52 97 107 117 122 0
53 103 108 113 118 0
52 102 107 117 122 0
54 104 114 119 124 0
51 106 111 116 121 0
56 61 66 71 76 0
57 62 67 72 82 0
58 63 68 73 88 0
59 64 69 74 94 0
56 61 66 71 101 0
59 64 69 74 109 0
57 62 67 72 112 0
58 63 68 73 123 0
57 62 67 77 82 0
56 61 66 76 96 0
57 62 67 77 112 0
56 61 66 76 121 0
58 63 68 83 88 0
57 62 67 82 107 0
58 63 68 83 123 0
59 64 69 89 94 0
59 64 69 89 109 0
58 63 68 88 118 0
59 64 69 94 104 0
56 61 66 96 101 0
59 64 69 104 109 0
56 61 66 101 121 0
57 62 67 107 112 0
58 63 68 118 123 0
58 63 73 78 88 0
56 61 71 76 91 0
56 61 71 76 116 0
58 63 73 78 123 0
59 64 74 84 94 0
57 62 72 82 97 0
57 62 72 82 102 0
59 64 74 84 109 0
58 63 73 88 113 0
56 61 71 91 101 0
59 64 74 94 124 0
57 62 72 97 112 0
57 62 72 102 112 0
56 61 71 101 116 0
59 64 74 109 124 0
58 63 73 113 123 0
58 63 78 83 88 0
57 62 77 82 97 0
57 62 77 82 102 0
58 63 78 83 123 0
58 63 78 88 118 0
56 61 76 91 96 0
56 61 76 91 121 0
57 62 77 97 112 0
56 61 76 96 116 0
57 62 77 102 112 0
56 61 76 116 121 0
58 63 78 118 123 0
59 64 84 89 94 0
59 64 84 89 109 0
58 63 83 88 113 0
59 64 84 94 104 0
57 62 82 97 107 0
57 62 82 102 107 0
59 64 84 104 109 0
58 63 83 113 123 0
59 64 89 94 124 0
59 64 89 109 124 0
58 63 88 113 118 0
56 61 91 96 101 0
56 61 91 101 121 0
59 64 94 104 124 0
56 61 96 101 116 0
57 62 97 107 112 0
57 62 102 107 112 0
59 64 104 109 124 0
56 61 101 116 121 0
58 63 113 118 123 0
56 66 71 76 86 0
59 69 74 79 94 0
59 69 74 79 109 0
56 66 71 76 111 0
57 67 72 82 92 0
57 67 72 82 122 0
58 68 73 88 98 0
56 66 71 86 101 0
58 68 73 88 108 0
57 67 72 92 112 0
59 69 74 94 119 0
58 68 73 98 123 0
56 66 71 101 111 0
59 69 74 109 119 0
58 68 73 108 123 0
57 67 72 112 122 0
57 67 77 82 92 0
57 67 77 82 122 0
59 69 79 89 94 0
56 66 76 86 96 0
59 69 79 89 109 0
56 66 76 86 121 0
59 69 79 94 104 0
57 67 77 92 112 0
56 66 76 96 111 0
59 69 79 104 109 0
56 66 76 111 121 0
57 67 77 112 122 0
58 68 83 88 98 0
58 68 83 88 108 0
57 67 82 92 107 0
58 68 83 98 123 0
57 67 82 107 122 0
58 68 83 108 123 0
59 69 89 94 119 0
56 66 86 96 101 0
58 68 88 98 118 0
56 66 86 101 121 0
58 68 88 108 118 0
59 69 89 109 119 0
59 69 94 104 119 0
57 67 92 107 112 0
56 66 96 101 111 0
58 68 98 118 123 0
59 69 104 109 119 0
56 66 101 111 121 0
57 67 107 112 122 0
58 68 108 118 123 0
59 74 79 84 94 0
59 74 79 84 109 0
56 71 76 86 91 0
58 73 78 88 98 0
58 73 78 88 108 0
56 71 76 86 116 0
56 71 76 91 111 0
59 74 79 94 124 0
58 73 78 98 123 0
58 73 78 108 123 0
59 74 79 109 124 0
56 71 76 111 116 0
57 72 82 92 97 0
57 72 82 92 102 0
59 74 84 94 119 0
57 72 82 97 122 0
57 72 82 102 122 0
59 74 84 109 119 0
56 71 86 91 101 0
58 73 88 98 113 0
56 71 86 101 116 0
58 73 88 108 113 0
57 72 92 97 112 0
56 71 91 101 111 0
57 72 92 102 112 0
59 74 94 119 124 0
57 72 97 112 122 0
58 73 98 113 123 0
56 71 101 111 116 0
57 72 102 112 122 0
58 73 108 113 123 0
59 74 109 119 124 0
59 79 84 89 94 0
58 78 83 88 98 0
58 78 83 88 108 0
59 79 84 89 109 0
57 77 82 92 97 0
57 77 82 92 102 0
59 79 84 94 104 0
57 77 82 97 122 0
58 78 83 98 123 0
59 79 84 104 109 0
57 77 82 102 122 0
58 78 83 108 123 0
56 76 86 91 96 0
56 76 86 91 121 0
59 79 89 94 124 0
56 76 86 96 116 0
58 78 88 98 118 0
58 78 88 108 118 0
59 79 89 109 124 0
56 76 86 116 121 0
56 76 91 96 111 0
57 77 92 97 112 0
57 77 92 102 112 0
59 79 94 104 124 0
56 76 91 111 121 0
56 76 96 111 116 0
57 77 97 112 122 0
58 78 98 118 123 0
59 79 104 109 124 0
57 77 102 112 122 0
58 78 108 118 123 0
56 76 111 116 121 0
59 84 89 94 119 0
58 83 88 98 113 0
58 83 88 108 113 0
59 84 89 109 119 0
57 82 92 97 107 0
57 82 92 102 107 0
59 84 94 104 119 0
57 82 97 107 122 0
58 83 98 113 123 0
59 84 104 109 119 0
57 82 102 107 122 0
58 83 108 113 123 0
56 86 91 96 101 0
56 86 91 101 121 0
59 89 94 119 124 0
56 86 96 101 116 0
58 88 98 113 118 0
56 86 101 116 121 0
58 88 108 113 118 0
59 89 109 119 124 0
56 91 96 101 111 0
57 92 97 107 112 0
57 92 102 107 112 0
56 91 101 111 121 0
59 94 104 119 124 0
56 96 101 111 116 0
57 97 107 112 122 0
58 98 113 118 123 0
57 102 107 112 122 0
59 104 109 119 124 0
56 101 111 116 121 0
58 108 113 118 123 0
61 66 71 76 81 0
61 66 71 76 106 0
62 67 72 82 87 0
61 66 71 81 101 0
62 67 72 82 117 0
63 68 73 88 93 0
63 68 73 88 103 0
62 67 72 87 112 0
64 69 74 94 99 0
64 69 74 94 114 0
63 68 73 93 123 0
64 69 74 99 109 0
61 66 71 101 106 0
63 68 73 103 123 0
64 69 74 109 114 0
62 67 72 112 117 0
62 67 77 82 87 0
61 66 76 81 96 0
62 67 77 82 117 0
61 66 76 81 121 0
62 67 77 87 112 0
61 66 76 96 106 0
61 66 76 106 121 0
62 67 77 112 117 0
63 68 83 88 93 0
63 68 83 88 103 0
62 67 82 87 107 0
63 68 83 93 123 0
61 66 81 96 101 0
61 66 81 101 121 0
63 68 83 103 123 0
62 67 82 107 117 0
64 69 89 94 99 0
64 69 89 94 114 0
63 68 88 93 118 0
64 69 89 99 109 0
63 68 88 103 118 0
62 67 87 107 112 0
64 69 89 109 114 0
64 69 94 99 104 0
64 69 94 104 114 0
63 68 93 118 123 0
61 66 96 101 106 0
64 69 99 104 109 0
64 69 104 109 114 0
61 66 101 106 121 0
63 68 103 118 123 0
62 67 107 112 117 0
61 71 76 81 91 0
61 71 76 81 116 0
63 73 78 88 93 0
63 73 78 88 103 0
61 71 76 91 106 0
63 73 78 93 123 0
63 73 78 103 123 0
61 71 76 106 116 0
62 72 82 87 97 0
62 72 82 87 102 0
64 74 84 94 99 0
61 71 81 91 101 0
64 74 84 94 114 0
64 74 84 99 109 0
62 72 82 97 117 0
61 71 81 101 116 0
62 72 82 102 117 0
64 74 84 109 114 0
63 73 88 93 113 0
62 72 87 97 112 0
62 72 87 102 112 0
63 73 88 103 113 0
64 74 94 99 124 0
61 71 91 101 106 0
63 73 93 113 123 0
64 74 94 114 124 0
64 74 99 109 124 0
62 72 97 112 117 0
61 71 101 106 116 0
62 72 102 112 117 0
63 73 103 113 123 0
64 74 109 114 124 0
63 78 83 88 93 0
62 77 82 87 97 0
62 77 82 87 102 0
63 78 83 88 103 0
61 76 81 91 96 0
61 76 81 91 121 0
63 78 83 93 123 0
61 76 81 96 116 0
62 77 82 97 117 0
62 77 82 102 117 0
63 78 83 103 123 0
61 76 81 116 121 0
63 78 88 93 118 0
62 77 87 97 112 0
62 77 87 102 112 0
63 78 88 103 118 0
61 76 91 96 106 0
61 76 91 106 121 0
63 78 93 118 123 0
61 76 96 106 116 0
62 77 97 112 117 0
62 77 102 112 117 0
63 78 103 118 123 0
61 76 106 116 121 0
64 84 89 94 99 0
63 83 88 93 113 0
64 84 89 94 114 0
62 82 87 97 107 0
64 84 89 99 109 0
62 82 87 102 107 0
63 83 88 103 113 0
64 84 89 109 114 0
61 81 91 96 101 0
64 84 94 99 104 0
64 84 94 104 114 0
61 81 91 101 121 0
63 83 93 113 123 0
64 84 99 104 109 0
61 81 96 101 116 0
62 82 97 107 117 0
64 84 104 109 114 0
62 82 102 107 117 0
63 83 103 113 123 0
61 81 101 116 121 0
64 89 94 99 124 0
63 88 93 113 118 0
64 89 94 114 124 0
62 87 97 107 112 0
64 89 99 109 124 0
62 87 102 107 112 0
63 88 103 113 118 0
64 89 109 114 124 0
61 91 96 101 106 0
64 94 99 104 124 0
61 91 101 106 121 0
64 94 104 114 124 0
63 93 113 118 123 0
61 96 101 106 116 0
64 99 104 109 124 0
62 97 107 112 117 0
62 102 107 112 117 0
64 104 109 114 124 0
61 101 106 116 121 0
63 103 113 118 123 0
66 71 76 81 86 0
66 71 76 81 111 0
66 71 76 86 106 0
69 74 79 94 99 0
69 74 79 94 114 0
69 74 79 99 109 0
66 71 76 106 111 0
69 74 79 109 114 0
67 72 82 87 92 0
66 71 81 86 101 0
67 72 82 87 122 0
67 72 82 92 117 0
66 71 81 101 111 0
67 72 82 117 122 0
68 73 88 93 98 0
68 73 88 93 108 0
67 72 87 92 112 0
68 73 88 98 103 0
66 71 86 101 106 0
68 73 88 103 108 0
67 72 87 112 122 0
69 74 94 99 119 0
68 73 93 98 123 0
68 73 93 108 123 0
67 72 92 112 117 0
69 74 94 114 119 0
68 73 98 103 123 0
69 74 99 109 119 0
66 71 101 106 111 0
68 73 103 108 123 0
69 74 109 114 119 0
67 72 112 117 122 0
67 77 82 87 92 0
66 76 81 86 96 0
66 76 81 86 121 0
67 77 82 87 122 0
67 77 82 92 117 0
66 76 81 96 111 0
66 76 81 111 121 0
67 77 82 117 122 0
69 79 89 94 99 0
67 77 87 92 112 0
69 79 89 94 114 0
66 76 86 96 106 0
69 79 89 99 109 0
69 79 89 109 114 0
66 76 86 106 121 0
67 77 87 112 122 0
69 79 94 99 104 0
69 79 94 104 114 0
67 77 92 112 117 0
69 79 99 104 109 0
66 76 96 106 111 0
69 79 104 109 114 0
66 76 106 111 121 0
67 77 112 117 122 0
68 83 88 93 98 0
67 82 87 92 107 0
68 83 88 93 108 0
66 81 86 96 101 0
68 83 88 98 103 0
68 83 88 103 108 0
66 81 86 101 121 0
67 82 87 107 122 0
68 83 93 98 123 0
67 82 92 107 117 0
68 83 93 108 123 0
66 81 96 101 111 0
68 83 98 103 123 0
68 83 103 108 123 0
66 81 101 111 121 0
67 82 107 117 122 0
68 88 93 98 118 0
69 89 94 99 119 0
67 87 92 107 112 0
68 88 93 108 118 0
69 89 94 114 119 0
66 86 96 101 106 0
68 88 98 103 118 0
69 89 99 109 119 0
68 88 103 108 118 0
66 86 101 106 121 0
69 89 109 114 119 0
67 87 107 112 122 0
69 94 99 104 119 0
68 93 98 118 123 0
69 94 104 114 119 0
67 92 107 112 117 0
68 93 108 118 123 0
66 96 101 106 111 0
69 99 104 109 119 0
68 98 103 118 123 0
69 104 109 114 119 0
66 101 106 111 121 0
68 103 108 118 123 0
67 107 112 117 122 0
71 76 81 86 91 0
71 76 81 86 116 0
74 79 84 94 99 0
71 76 81 91 111 0
74 79 84 94 114 0
74 79 84 99 109 0
74 79 84 109 114 0
71 76 81 111 116 0
73 78 88 93 98 0
71 76 86 91 106 0
73 78 88 93 108 0
73 78 88 98 103 0
73 78 88 103 108 0
71 76 86 106 116 0
73 78 93 98 123 0
74 79 94 99 124 0
71 76 91 106 111 0
73 78 93 108 123 0
74 79 94 114 124 0
73 78 98 103 123 0
74 79 99 109 124 0
73 78 103 108 123 0
71 76 106 111 116 0
74 79 109 114 124 0
72 82 87 92 97 0
71 81 86 91 101 0
72 82 87 92 102 0
72 82 87 97 122 0
71 81 86 101 116 0
72 82 87 102 122 0
72 82 92 97 117 0
74 84 94 99 119 0
71 81 91 101 111 0
72 82 92 102 117 0
74 84 94 114 119 0
74 84 99 109 119 0
72 82 97 117 122 0
71 81 101 111 116 0
72 82 102 117 122 0
74 84 109 114 119 0
72 87 92 97 112 0
73 88 93 98 113 0
71 86 91 101 106 0
72 87 92 102 112 0
73 88 93 108 113 0
73 88 98 103 113 0
72 87 97 112 122 0
73 88 103 108 113 0
71 86 101 106 116 0
72 87 102 112 122 0
72 92 97 112 117 0
73 93 98 113 123 0
74 94 99 119 124 0
71 91 101 106 111 0
72 92 102 112 117 0
73 93 108 113 123 0
74 94 114 119 124 0
73 98 103 113 123 0
74 99 109 119 124 0
72 97 112 117 122 0
71 101 106 111 116 0
73 103 108 113 123 0
72 102 112 117 122 0
74 109 114 119 124 0
76 81 86 91 96 0
77 82 87 92 97 0
78 83 88 93 98 0
79 84 89 94 99 0
77 82 87 92 102 0
78 83 88 93 108 0
79 84 89 94 114 0
76 81 86 91 121 0
78 83 88 98 103 0
79 84 89 99 109 0
76 81 86 96 116 0
77 82 87 97 122 0
78 83 88 103 108 0
77 82 87 102 122 0
79 84 89 109 114 0
76 81 86 116 121 0
79 84 94 99 104 0
76 81 91 96 111 0
77 82 92 97 117 0
78 83 93 98 123 0
79 84 94 104 114 0
77 82 92 102 117 0
78 83 93 108 123 0
76 81 91 111 121 0
79 84 99 104 109 0
78 83 98 103 123 0
76 81 96 111 116 0
77 82 97 117 122 0
79 84 104 109 114 0
78 83 103 108 123 0
77 82 102 117 122 0
76 81 111 116 121 0
76 86 91 96 106 0
77 87 92 97 112 0
78 88 93 98 118 0
79 89 94 99 124 0
77 87 92 102 112 0
78 88 93 108 118 0
76 86 91 106 121 0
79 89 94 114 124 0
78 88 98 103 118 0
76 86 96 106 116 0
79 89 99 109 124 0
77 87 97 112 122 0
78 88 103 108 118 0
77 87 102 112 122 0
79 89 109 114 124 0
76 86 106 116 121 0
79 94 99 104 124 0
76 91 96 106 111 0
77 92 97 112 117 0
78 93 98 118 123 0
77 92 102 112 117 0
79 94 104 114 124 0
76 91 106 111 121 0
78 93 108 118 123 0
79 99 104 109 124 0
78 98 103 118 123 0
76 96 106 111 116 0
77 97 112 117 122 0
79 104 109 114 124 0
78 103 108 118 123 0
77 102 112 117 122 0
76 106 111 116 121 0
81 86 91 96 101 0
82 87 92 97 107 0
83 88 93 98 113 0
84 89 94 99 119 0
82 87 92 102 107 0
81 86 91 101 121 0
83 88 93 108 113 0
84 89 94 114 119 0
83 88 98 103 113 0
81 86 96 101 116 0
84 89 99 109 119 0
82 87 97 107 122 0
83 88 103 108 113 0
82 87 102 107 122 0
81 86 101 116 121 0
84 89 109 114 119 0
81 91 96 101 111 0
84 94 99 104 119 0
82 92 97 107 117 0
83 93 98 113 123 0
82 92 102 107 117 0
84 94 104 114 119 0
81 91 101 111 121 0
83 93 108 113 123 0
84 99 104 109 119 0
81 96 101 111 116 0
83 98 103 113 123 0
82 97 107 117 122 0
84 104 109 114 119 0
83 103 108 113 123 0
82 102 107 117 122 0
81 101 111 116 121 0
86 91 96 101 106 0
87 92 97 107 112 0
88 93 98 113 118 0
89 94 99 119 124 0
87 92 102 107 112 0
86 91 101 106 121 0
88 93 108 113 118 0
89 94 114 119 124 0
86 96 101 106 116 0
88 98 103 113 118 0
87 97 107 112 122 0
89 99 109 119 124 0
88 103 108 113 118 0
87 102 107 112 122 0
86 101 106 116 121 0
89 109 114 119 124 0
91 96 101 106 111 0
94 99 104 119 124 0
92 97 107 112 117 0
93 98 113 118 123 0
92 102 107 112 117 0
91 101 106 111 121 0
94 104 114 119 124 0
93 108 113 118 123 0
96 101 106 111 116 0
99 104 109 119 124 0
98 103 113 118 123 0
97 107 112 117 122 0
101 106 111 116 121 0
102 107 112 117 122 0
103 108 113 118 123 0
104 109 114 119 124 0
