c free edges 0..49 vertical old, 50..74 infinity-to-old
c variable(e,c)=5*e+c+1; no symmetry breaking
p cnf 375 16450
1 2 3 4 5 0
-1 -2 0
-1 -3 0
-1 -4 0
-1 -5 0
-2 -3 0
-2 -4 0
-2 -5 0
-3 -4 0
-3 -5 0
-4 -5 0
6 7 8 9 10 0
-6 -7 0
-6 -8 0
-6 -9 0
-6 -10 0
-7 -8 0
-7 -9 0
-7 -10 0
-8 -9 0
-8 -10 0
-9 -10 0
11 12 13 14 15 0
-11 -12 0
-11 -13 0
-11 -14 0
-11 -15 0
-12 -13 0
-12 -14 0
-12 -15 0
-13 -14 0
-13 -15 0
-14 -15 0
16 17 18 19 20 0
-16 -17 0
-16 -18 0
-16 -19 0
-16 -20 0
-17 -18 0
-17 -19 0
-17 -20 0
-18 -19 0
-18 -20 0
-19 -20 0
21 22 23 24 25 0
-21 -22 0
-21 -23 0
-21 -24 0
-21 -25 0
-22 -23 0
-22 -24 0
-22 -25 0
-23 -24 0
-23 -25 0
-24 -25 0
26 27 28 29 30 0
-26 -27 0
-26 -28 0
-26 -29 0
-26 -30 0
-27 -28 0
-27 -29 0
-27 -30 0
-28 -29 0
-28 -30 0
-29 -30 0
31 32 33 34 35 0
-31 -32 0
-31 -33 0
-31 -34 0
-31 -35 0
-32 -33 0
-32 -34 0
-32 -35 0
-33 -34 0
-33 -35 0
-34 -35 0
36 37 38 39 40 0
-36 -37 0
-36 -38 0
-36 -39 0
-36 -40 0
-37 -38 0
-37 -39 0
-37 -40 0
-38 -39 0
-38 -40 0
-39 -40 0
41 42 43 44 45 0
-41 -42 0
-41 -43 0
-41 -44 0
-41 -45 0
-42 -43 0
-42 -44 0
-42 -45 0
-43 -44 0
-43 -45 0
-44 -45 0
46 47 48 49 50 0
-46 -47 0
-46 -48 0
-46 -49 0
-46 -50 0
-47 -48 0
-47 -49 0
-47 -50 0
-48 -49 0
-48 -50 0
-49 -50 0
51 52 53 54 55 0
-51 -52 0
-51 -53 0
-51 -54 0
-51 -55 0
-52 -53 0
-52 -54 0
-52 -55 0
-53 -54 0
-53 -55 0
-54 -55 0
56 57 58 59 60 0
-56 -57 0
-56 -58 0
-56 -59 0
-56 -60 0
-57 -58 0
-57 -59 0
-57 -60 0
-58 -59 0
-58 -60 0
-59 -60 0
61 62 63 64 65 0
-61 -62 0
-61 -63 0
-61 -64 0
-61 -65 0
-62 -63 0
-62 -64 0
-62 -65 0
-63 -64 0
-63 -65 0
-64 -65 0
66 67 68 69 70 0
-66 -67 0
-66 -68 0
-66 -69 0
-66 -70 0
-67 -68 0
-67 -69 0
-67 -70 0
-68 -69 0
-68 -70 0
-69 -70 0
71 72 73 74 75 0
-71 -72 0
-71 -73 0
-71 -74 0
-71 -75 0
-72 -73 0
-72 -74 0
-72 -75 0
-73 -74 0
-73 -75 0
-74 -75 0
76 77 78 79 80 0
-76 -77 0
-76 -78 0
-76 -79 0
-76 -80 0
-77 -78 0
-77 -79 0
-77 -80 0
-78 -79 0
-78 -80 0
-79 -80 0
81 82 83 84 85 0
-81 -82 0
-81 -83 0
-81 -84 0
-81 -85 0
-82 -83 0
-82 -84 0
-82 -85 0
-83 -84 0
-83 -85 0
-84 -85 0
86 87 88 89 90 0
-86 -87 0
-86 -88 0
-86 -89 0
-86 -90 0
-87 -88 0
-87 -89 0
-87 -90 0
-88 -89 0
-88 -90 0
-89 -90 0
91 92 93 94 95 0
-91 -92 0
-91 -93 0
-91 -94 0
-91 -95 0
-92 -93 0
-92 -94 0
-92 -95 0
-93 -94 0
-93 -95 0
-94 -95 0
96 97 98 99 100 0
-96 -97 0
-96 -98 0
-96 -99 0
-96 -100 0
-97 -98 0
-97 -99 0
-97 -100 0
-98 -99 0
-98 -100 0
-99 -100 0
101 102 103 104 105 0
-101 -102 0
-101 -103 0
-101 -104 0
-101 -105 0
-102 -103 0
-102 -104 0
-102 -105 0
-103 -104 0
-103 -105 0
-104 -105 0
106 107 108 109 110 0
-106 -107 0
-106 -108 0
-106 -109 0
-106 -110 0
-107 -108 0
-107 -109 0
-107 -110 0
-108 -109 0
-108 -110 0
-109 -110 0
111 112 113 114 115 0
-111 -112 0
-111 -113 0
-111 -114 0
-111 -115 0
-112 -113 0
-112 -114 0
-112 -115 0
-113 -114 0
-113 -115 0
-114 -115 0
116 117 118 119 120 0
-116 -117 0
-116 -118 0
-116 -119 0
-116 -120 0
-117 -118 0
-117 -119 0
-117 -120 0
-118 -119 0
-118 -120 0
-119 -120 0
121 122 123 124 125 0
-121 -122 0
-121 -123 0
-121 -124 0
-121 -125 0
-122 -123 0
-122 -124 0
-122 -125 0
-123 -124 0
-123 -125 0
-124 -125 0
126 127 128 129 130 0
-126 -127 0
-126 -128 0
-126 -129 0
-126 -130 0
-127 -128 0
-127 -129 0
-127 -130 0
-128 -129 0
-128 -130 0
-129 -130 0
131 132 133 134 135 0
-131 -132 0
-131 -133 0
-131 -134 0
-131 -135 0
-132 -133 0
-132 -134 0
-132 -135 0
-133 -134 0
-133 -135 0
-134 -135 0
136 137 138 139 140 0
-136 -137 0
-136 -138 0
-136 -139 0
-136 -140 0
-137 -138 0
-137 -139 0
-137 -140 0
-138 -139 0
-138 -140 0
-139 -140 0
141 142 143 144 145 0
-141 -142 0
-141 -143 0
-141 -144 0
-141 -145 0
-142 -143 0
-142 -144 0
-142 -145 0
-143 -144 0
-143 -145 0
-144 -145 0
146 147 148 149 150 0
-146 -147 0
-146 -148 0
-146 -149 0
-146 -150 0
-147 -148 0
-147 -149 0
-147 -150 0
-148 -149 0
-148 -150 0
-149 -150 0
151 152 153 154 155 0
-151 -152 0
-151 -153 0
-151 -154 0
-151 -155 0
-152 -153 0
-152 -154 0
-152 -155 0
-153 -154 0
-153 -155 0
-154 -155 0
156 157 158 159 160 0
-156 -157 0
-156 -158 0
-156 -159 0
-156 -160 0
-157 -158 0
-157 -159 0
-157 -160 0
-158 -159 0
-158 -160 0
-159 -160 0
161 162 163 164 165 0
-161 -162 0
-161 -163 0
-161 -164 0
-161 -165 0
-162 -163 0
-162 -164 0
-162 -165 0
-163 -164 0
-163 -165 0
-164 -165 0
166 167 168 169 170 0
-166 -167 0
-166 -168 0
-166 -169 0
-166 -170 0
-167 -168 0
-167 -169 0
-167 -170 0
-168 -169 0
-168 -170 0
-169 -170 0
171 172 173 174 175 0
-171 -172 0
-171 -173 0
-171 -174 0
-171 -175 0
-172 -173 0
-172 -174 0
-172 -175 0
-173 -174 0
-173 -175 0
-174 -175 0
176 177 178 179 180 0
-176 -177 0
-176 -178 0
-176 -179 0
-176 -180 0
-177 -178 0
-177 -179 0
-177 -180 0
-178 -179 0
-178 -180 0
-179 -180 0
181 182 183 184 185 0
-181 -182 0
-181 -183 0
-181 -184 0
-181 -185 0
-182 -183 0
-182 -184 0
-182 -185 0
-183 -184 0
-183 -185 0
-184 -185 0
186 187 188 189 190 0
-186 -187 0
-186 -188 0
-186 -189 0
-186 -190 0
-187 -188 0
-187 -189 0
-187 -190 0
-188 -189 0
-188 -190 0
-189 -190 0
191 192 193 194 195 0
-191 -192 0
-191 -193 0
-191 -194 0
-191 -195 0
-192 -193 0
-192 -194 0
-192 -195 0
-193 -194 0
-193 -195 0
-194 -195 0
196 197 198 199 200 0
-196 -197 0
-196 -198 0
-196 -199 0
-196 -200 0
-197 -198 0
-197 -199 0
-197 -200 0
-198 -199 0
-198 -200 0
-199 -200 0
201 202 203 204 205 0
-201 -202 0
-201 -203 0
-201 -204 0
-201 -205 0
-202 -203 0
-202 -204 0
-202 -205 0
-203 -204 0
-203 -205 0
-204 -205 0
206 207 208 209 210 0
-206 -207 0
-206 -208 0
-206 -209 0
-206 -210 0
-207 -208 0
-207 -209 0
-207 -210 0
-208 -209 0
-208 -210 0
-209 -210 0
211 212 213 214 215 0
-211 -212 0
-211 -213 0
-211 -214 0
-211 -215 0
-212 -213 0
-212 -214 0
-212 -215 0
-213 -214 0
-213 -215 0
-214 -215 0
216 217 218 219 220 0
-216 -217 0
-216 -218 0
-216 -219 0
-216 -220 0
-217 -218 0
-217 -219 0
-217 -220 0
-218 -219 0
-218 -220 0
-219 -220 0
221 222 223 224 225 0
-221 -222 0
-221 -223 0
-221 -224 0
-221 -225 0
-222 -223 0
-222 -224 0
-222 -225 0
-223 -224 0
-223 -225 0
-224 -225 0
226 227 228 229 230 0
-226 -227 0
-226 -228 0
-226 -229 0
-226 -230 0
-227 -228 0
-227 -229 0
-227 -230 0
-228 -229 0
-228 -230 0
-229 -230 0
231 232 233 234 235 0
-231 -232 0
-231 -233 0
-231 -234 0
-231 -235 0
-232 -233 0
-232 -234 0
-232 -235 0
-233 -234 0
-233 -235 0
-234 -235 0
236 237 238 239 240 0
-236 -237 0
-236 -238 0
-236 -239 0
-236 -240 0
-237 -238 0
-237 -239 0
-237 -240 0
-238 -239 0
-238 -240 0
-239 -240 0
241 242 243 244 245 0
-241 -242 0
-241 -243 0
-241 -244 0
-241 -245 0
-242 -243 0
-242 -244 0
-242 -245 0
-243 -244 0
-243 -245 0
-244 -245 0
246 247 248 249 250 0
-246 -247 0
-246 -248 0
-246 -249 0
-246 -250 0
-247 -248 0
-247 -249 0
-247 -250 0
-248 -249 0
-248 -250 0
-249 -250 0
251 252 253 254 255 0
-251 -252 0
-251 -253 0
-251 -254 0
-251 -255 0
-252 -253 0
-252 -254 0
-252 -255 0
-253 -254 0
-253 -255 0
-254 -255 0
256 257 258 259 260 0
-256 -257 0
-256 -258 0
-256 -259 0
-256 -260 0
-257 -258 0
-257 -259 0
-257 -260 0
-258 -259 0
-258 -260 0
-259 -260 0
261 262 263 264 265 0
-261 -262 0
-261 -263 0
-261 -264 0
-261 -265 0
-262 -263 0
-262 -264 0
-262 -265 0
-263 -264 0
-263 -265 0
-264 -265 0
266 267 268 269 270 0
-266 -267 0
-266 -268 0
-266 -269 0
-266 -270 0
-267 -268 0
-267 -269 0
-267 -270 0
-268 -269 0
-268 -270 0
-269 -270 0
271 272 273 274 275 0
-271 -272 0
-271 -273 0
-271 -274 0
-271 -275 0
-272 -273 0
-272 -274 0
-272 -275 0
-273 -274 0
-273 -275 0
-274 -275 0
276 277 278 279 280 0
-276 -277 0
-276 -278 0
-276 -279 0
-276 -280 0
-277 -278 0
-277 -279 0
-277 -280 0
-278 -279 0
-278 -280 0
-279 -280 0
281 282 283 284 285 0
-281 -282 0
-281 -283 0
-281 -284 0
-281 -285 0
-282 -283 0
-282 -284 0
-282 -285 0
-283 -284 0
-283 -285 0
-284 -285 0
286 287 288 289 290 0
-286 -287 0
-286 -288 0
-286 -289 0
-286 -290 0
-287 -288 0
-287 -289 0
-287 -290 0
-288 -289 0
-288 -290 0
-289 -290 0
291 292 293 294 295 0
-291 -292 0
-291 -293 0
-291 -294 0
-291 -295 0
-292 -293 0
-292 -294 0
-292 -295 0
-293 -294 0
-293 -295 0
-294 -295 0
296 297 298 299 300 0
-296 -297 0
-296 -298 0
-296 -299 0
-296 -300 0
-297 -298 0
-297 -299 0
-297 -300 0
-298 -299 0
-298 -300 0
-299 -300 0
301 302 303 304 305 0
-301 -302 0
-301 -303 0
-301 -304 0
-301 -305 0
-302 -303 0
-302 -304 0
-302 -305 0
-303 -304 0
-303 -305 0
-304 -305 0
306 307 308 309 310 0
-306 -307 0
-306 -308 0
-306 -309 0
-306 -310 0
-307 -308 0
-307 -309 0
-307 -310 0
-308 -309 0
-308 -310 0
-309 -310 0
311 312 313 314 315 0
-311 -312 0
-311 -313 0
-311 -314 0
-311 -315 0
-312 -313 0
-312 -314 0
-312 -315 0
-313 -314 0
-313 -315 0
-314 -315 0
316 317 318 319 320 0
-316 -317 0
-316 -318 0
-316 -319 0
-316 -320 0
-317 -318 0
-317 -319 0
-317 -320 0
-318 -319 0
-318 -320 0
-319 -320 0
321 322 323 324 325 0
-321 -322 0
-321 -323 0
-321 -324 0
-321 -325 0
-322 -323 0
-322 -324 0
-322 -325 0
-323 -324 0
-323 -325 0
-324 -325 0
326 327 328 329 330 0
-326 -327 0
-326 -328 0
-326 -329 0
-326 -330 0
-327 -328 0
-327 -329 0
-327 -330 0
-328 -329 0
-328 -330 0
-329 -330 0
331 332 333 334 335 0
-331 -332 0
-331 -333 0
-331 -334 0
-331 -335 0
-332 -333 0
-332 -334 0
-332 -335 0
-333 -334 0
-333 -335 0
-334 -335 0
336 337 338 339 340 0
-336 -337 0
-336 -338 0
-336 -339 0
-336 -340 0
-337 -338 0
-337 -339 0
-337 -340 0
-338 -339 0
-338 -340 0
-339 -340 0
341 342 343 344 345 0
-341 -342 0
-341 -343 0
-341 -344 0
-341 -345 0
-342 -343 0
-342 -344 0
-342 -345 0
-343 -344 0
-343 -345 0
-344 -345 0
346 347 348 349 350 0
-346 -347 0
-346 -348 0
-346 -349 0
-346 -350 0
-347 -348 0
-347 -349 0
-347 -350 0
-348 -349 0
-348 -350 0
-349 -350 0
351 352 353 354 355 0
-351 -352 0
-351 -353 0
-351 -354 0
-351 -355 0
-352 -353 0
-352 -354 0
-352 -355 0
-353 -354 0
-353 -355 0
-354 -355 0
356 357 358 359 360 0
-356 -357 0
-356 -358 0
-356 -359 0
-356 -360 0
-357 -358 0
-357 -359 0
-357 -360 0
-358 -359 0
-358 -360 0
-359 -360 0
361 362 363 364 365 0
-361 -362 0
-361 -363 0
-361 -364 0
-361 -365 0
-362 -363 0
-362 -364 0
-362 -365 0
-363 -364 0
-363 -365 0
-364 -365 0
366 367 368 369 370 0
-366 -367 0
-366 -368 0
-366 -369 0
-366 -370 0
-367 -368 0
-367 -369 0
-367 -370 0
-368 -369 0
-368 -370 0
-369 -370 0
371 372 373 374 375 0
-371 -372 0
-371 -373 0
-371 -374 0
-371 -375 0
-372 -373 0
-372 -374 0
-372 -375 0
-373 -374 0
-373 -375 0
-374 -375 0
1 6 11 16 21 26 31 36 41 46 251 256 261 266 271 0
2 7 12 17 22 27 32 37 42 47 252 257 262 267 272 0
3 8 13 18 23 28 33 38 43 48 253 258 263 268 273 0
4 9 14 19 24 29 34 39 44 49 254 259 264 269 274 0
5 10 15 20 25 30 35 40 45 50 255 260 265 270 275 0
2 7 12 22 27 37 252 257 262 267 277 0
3 8 13 23 28 38 253 258 263 268 283 0
4 9 14 24 29 39 254 259 264 269 289 0
5 10 15 25 30 40 255 260 265 270 295 0
1 6 11 21 26 36 251 256 261 266 296 0
4 9 14 24 29 39 254 259 264 269 304 0
2 7 12 22 27 37 252 257 262 267 307 0
5 10 15 25 30 40 255 260 265 270 315 0
3 8 13 23 28 38 253 258 263 268 318 0
1 6 11 21 26 36 251 256 261 266 321 0
3 8 13 23 28 38 253 258 263 268 328 0
5 10 15 25 30 40 255 260 265 270 335 0
2 7 12 22 27 37 252 257 262 267 337 0
4 9 14 24 29 39 254 259 264 269 344 0
1 6 11 21 26 36 251 256 261 266 346 0
5 10 15 25 30 40 255 260 265 270 355 0
4 9 14 24 29 39 254 259 264 269 359 0
3 8 13 23 28 38 253 258 263 268 363 0
2 7 12 22 27 37 252 257 262 267 367 0
1 6 11 21 26 36 251 256 261 266 371 0
3 8 18 23 33 43 253 258 263 273 278 0
4 9 19 24 34 44 254 259 264 274 284 0
5 10 20 25 35 45 255 260 265 275 290 0
1 6 16 21 31 41 251 256 261 271 291 0
2 7 17 22 32 42 252 257 262 272 297 0
2 7 17 22 32 42 252 257 262 272 302 0
5 10 20 25 35 45 255 260 265 275 310 0
3 8 18 23 33 43 253 258 263 273 313 0
1 6 16 21 31 41 251 256 261 271 316 0
4 9 19 24 34 44 254 259 264 274 324 0
5 10 20 25 35 45 255 260 265 275 330 0
2 7 17 22 32 42 252 257 262 272 332 0
4 9 19 24 34 44 254 259 264 274 339 0
1 6 16 21 31 41 251 256 261 271 341 0
3 8 18 23 33 43 253 258 263 273 348 0
4 9 19 24 34 44 254 259 264 274 354 0
3 8 18 23 33 43 253 258 263 273 358 0
2 7 17 22 32 42 252 257 262 272 362 0
1 6 16 21 31 41 251 256 261 271 366 0
5 10 20 25 35 45 255 260 265 275 375 0
3 8 23 53 253 258 263 278 283 0
2 7 22 67 252 257 262 277 297 0
2 7 22 252 257 262 277 302 0
3 8 23 253 258 263 278 318 0
3 8 23 253 258 263 278 328 0
2 7 22 252 257 262 277 332 0
2 7 22 252 257 262 277 362 0
3 8 23 253 258 263 278 363 0
4 9 24 74 254 259 264 284 289 0
4 9 24 254 259 264 284 304 0
3 8 23 253 258 263 283 313 0
4 9 24 254 259 264 284 344 0
3 8 23 253 258 263 283 348 0
3 8 23 253 258 263 283 358 0
4 9 24 254 259 264 284 359 0
5 10 25 90 255 260 265 290 295 0
5 10 25 255 260 265 290 315 0
4 9 24 254 259 264 289 324 0
5 10 25 255 260 265 290 335 0
4 9 24 254 259 264 289 339 0
4 9 24 254 259 264 289 354 0
5 10 25 255 260 265 290 355 0
1 6 21 96 251 256 261 291 296 0
5 10 25 255 260 265 295 310 0
1 6 21 251 256 261 291 321 0
5 10 25 255 260 265 295 330 0
1 6 21 251 256 261 291 346 0
1 6 21 251 256 261 291 371 0
5 10 25 255 260 265 295 375 0
2 7 22 252 257 262 297 307 0
1 6 21 251 256 261 296 316 0
2 7 22 252 257 262 297 337 0
1 6 21 251 256 261 296 341 0
1 6 21 251 256 261 296 366 0
2 7 22 252 257 262 297 367 0
2 7 22 102 252 257 262 302 307 0
4 9 24 119 254 259 264 304 324 0
2 7 22 252 257 262 302 337 0
4 9 24 254 259 264 304 339 0
4 9 24 254 259 264 304 354 0
2 7 22 252 257 262 302 367 0
5 10 25 125 255 260 265 310 315 0
2 7 22 252 257 262 307 332 0
5 10 25 255 260 265 310 335 0
5 10 25 255 260 265 310 355 0
2 7 22 252 257 262 307 362 0
3 8 23 138 253 258 263 313 318 0
3 8 23 253 258 263 313 328 0
5 10 25 255 260 265 315 330 0
3 8 23 253 258 263 313 363 0
5 10 25 255 260 265 315 375 0
1 6 21 146 251 256 261 316 321 0
1 6 21 251 256 261 316 346 0
3 8 23 253 258 263 318 348 0
3 8 23 253 258 263 318 358 0
1 6 21 251 256 261 316 371 0
1 6 21 251 256 261 321 341 0
4 9 24 254 259 264 324 344 0
4 9 24 254 259 264 324 359 0
1 6 21 251 256 261 321 366 0
5 10 25 155 255 260 265 330 335 0
3 8 23 168 253 258 263 328 348 0
5 10 25 255 260 265 330 355 0
3 8 23 253 258 263 328 358 0
2 7 22 172 252 257 262 332 337 0
2 7 22 252 257 262 332 367 0
5 10 25 255 260 265 335 375 0
4 9 24 189 254 259 264 339 344 0
4 9 24 254 259 264 339 359 0
2 7 22 252 257 262 337 362 0
1 6 21 196 251 256 261 341 346 0
4 9 24 254 259 264 344 354 0
1 6 21 251 256 261 341 371 0
3 8 23 253 258 263 348 363 0
1 6 21 251 256 261 346 366 0
4 9 24 204 254 259 264 354 359 0
5 10 25 220 255 260 265 355 375 0
3 8 23 223 253 258 263 358 363 0
2 7 22 237 252 257 262 362 367 0
1 6 21 246 251 256 261 366 371 0
4 14 19 29 34 49 254 259 269 274 279 0
5 15 20 30 35 50 255 260 270 275 285 0
1 11 16 26 31 46 251 256 266 271 286 0
2 12 17 27 32 47 252 257 267 272 292 0
3 13 18 28 33 48 253 258 268 273 298 0
5 15 20 30 35 50 255 260 270 275 305 0
3 13 18 28 33 48 253 258 268 273 308 0
1 11 16 26 31 46 251 256 266 271 311 0
4 14 19 29 34 49 254 259 269 274 319 0
2 12 17 27 32 47 252 257 267 272 322 0
2 12 17 27 32 47 252 257 267 272 327 0
4 14 19 29 34 49 254 259 269 274 334 0
1 11 16 26 31 46 251 256 266 271 336 0
3 13 18 28 33 48 253 258 268 273 343 0
5 15 20 30 35 50 255 260 270 275 350 0
3 13 18 28 33 48 253 258 268 273 353 0
2 12 17 27 32 47 252 257 267 272 357 0
1 11 16 26 31 46 251 256 266 271 361 0
5 15 20 30 35 50 255 260 270 275 370 0
4 14 19 29 34 49 254 259 269 274 374 0
4 14 29 59 254 259 269 279 289 0
2 12 27 62 252 257 267 277 292 0
4 14 29 254 259 269 279 304 0
2 12 27 252 257 267 277 322 0
2 12 27 252 257 267 277 327 0
4 14 29 254 259 269 279 344 0
2 12 27 252 257 267 277 357 0
4 14 29 254 259 269 279 359 0
5 15 30 80 255 260 270 285 295 0
3 13 28 83 253 258 268 283 298 0
3 13 28 253 258 268 283 308 0
5 15 30 255 260 270 285 315 0
5 15 30 255 260 270 285 335 0
3 13 28 253 258 268 283 343 0
3 13 28 253 258 268 283 353 0
5 15 30 255 260 270 285 355 0
1 11 26 91 251 256 266 286 296 0
4 14 29 254 259 269 289 319 0
1 11 26 251 256 266 286 321 0
4 14 29 254 259 269 289 334 0
1 11 26 251 256 266 286 346 0
1 11 26 251 256 266 286 371 0
4 14 29 254 259 269 289 374 0
5 15 30 255 260 270 295 305 0
2 12 27 252 257 267 292 307 0
2 12 27 252 257 267 292 337 0
5 15 30 255 260 270 295 350 0
2 12 27 252 257 267 292 367 0
5 15 30 255 260 270 295 370 0
1 11 26 251 256 266 296 311 0
3 13 28 253 258 268 298 318 0
3 13 28 253 258 268 298 328 0
1 11 26 251 256 266 296 336 0
1 11 26 251 256 266 296 361 0
3 13 28 253 258 268 298 363 0
5 15 30 110 255 260 270 305 315 0
4 14 29 114 254 259 269 304 319 0
4 14 29 254 259 269 304 334 0
5 15 30 255 260 270 305 335 0
5 15 30 255 260 270 305 355 0
4 14 29 254 259 269 304 374 0
3 13 28 128 253 258 268 308 318 0
2 12 27 132 252 257 267 307 322 0
2 12 27 252 257 267 307 327 0
3 13 28 253 258 268 308 328 0
2 12 27 252 257 267 307 357 0
3 13 28 253 258 268 308 363 0
1 11 26 141 251 256 266 311 321 0
1 11 26 251 256 266 311 346 0
5 15 30 255 260 270 315 350 0
5 15 30 255 260 270 315 370 0
1 11 26 251 256 266 311 371 0
3 13 28 253 258 268 318 343 0
4 14 29 254 259 269 319 344 0
3 13 28 253 258 268 318 353 0
4 14 29 254 259 269 319 359 0
1 11 26 251 256 266 321 336 0
2 12 27 252 257 267 322 337 0
1 11 26 251 256 266 321 361 0
2 12 27 252 257 267 322 367 0
2 12 27 157 252 257 267 327 337 0
3 13 28 163 253 258 268 328 343 0
3 13 28 253 258 268 328 353 0
2 12 27 252 257 267 327 367 0
4 14 29 179 254 259 269 334 344 0
5 15 30 185 255 260 270 335 350 0
4 14 29 254 259 269 334 359 0
5 15 30 255 260 270 335 370 0
1 11 26 191 251 256 266 336 346 0
2 12 27 252 257 267 337 357 0
1 11 26 251 256 266 336 371 0
3 13 28 253 258 268 343 363 0
4 14 29 254 259 269 344 374 0
5 15 30 255 260 270 350 355 0
1 11 26 251 256 266 346 361 0
3 13 28 208 253 258 268 353 363 0
5 15 30 215 255 260 270 355 370 0
2 12 27 227 252 257 267 357 367 0
4 14 29 234 254 259 269 359 374 0
1 11 26 241 251 256 266 361 371 0
4 19 34 54 254 259 274 279 284 0
3 18 33 68 253 258 273 278 298 0
3 18 33 253 258 273 278 308 0
4 19 34 254 259 274 279 324 0
4 19 34 254 259 274 279 339 0
3 18 33 253 258 273 278 343 0
3 18 33 253 258 273 278 353 0
4 19 34 254 259 274 279 354 0
5 20 35 75 255 260 275 285 290 0
5 20 35 255 260 275 285 310 0
4 19 34 254 259 274 284 319 0
5 20 35 255 260 275 285 330 0
4 19 34 254 259 274 284 334 0
4 19 34 254 259 274 284 374 0
5 20 35 255 260 275 285 375 0
1 16 31 86 251 256 271 286 291 0
5 20 35 255 260 275 290 305 0
1 16 31 251 256 271 286 316 0
1 16 31 251 256 271 286 341 0
5 20 35 255 260 275 290 350 0
1 16 31 251 256 271 286 366 0
5 20 35 255 260 275 290 370 0
2 17 32 97 252 257 272 292 297 0
2 17 32 252 257 272 292 302 0
1 16 31 251 256 271 291 311 0
2 17 32 252 257 272 292 332 0
1 16 31 251 256 271 291 336 0
1 16 31 251 256 271 291 361 0
2 17 32 252 257 272 292 362 0
3 18 33 253 258 273 298 313 0
2 17 32 252 257 272 297 322 0
2 17 32 252 257 272 297 327 0
3 18 33 253 258 273 298 348 0
2 17 32 252 257 272 297 357 0
3 18 33 253 258 273 298 358 0
5 20 35 105 255 260 275 305 310 0
2 17 32 117 252 257 272 302 322 0
2 17 32 252 257 272 302 327 0
5 20 35 255 260 275 305 330 0
2 17 32 252 257 272 302 357 0
5 20 35 255 260 275 305 375 0
3 18 33 123 253 258 273 308 313 0
3 18 33 253 258 273 308 348 0
5 20 35 255 260 275 310 350 0
3 18 33 253 258 273 308 358 0
5 20 35 255 260 275 310 370 0
1 16 31 136 251 256 271 311 316 0
1 16 31 251 256 271 311 341 0
3 18 33 253 258 273 313 343 0
3 18 33 253 258 273 313 353 0
1 16 31 251 256 271 311 366 0
4 19 34 149 254 259 274 319 324 0
1 16 31 251 256 271 316 336 0
4 19 34 254 259 274 319 339 0
4 19 34 254 259 274 319 354 0
1 16 31 251 256 271 316 361 0
2 17 32 252 257 272 322 332 0
4 19 34 254 259 274 324 334 0
2 17 32 252 257 272 322 362 0
4 19 34 254 259 274 324 374 0
2 17 32 152 252 257 272 327 332 0
5 20 35 170 255 260 275 330 350 0
2 17 32 252 257 272 327 362 0
5 20 35 255 260 275 330 370 0
4 19 34 174 254 259 274 334 339 0
4 19 34 254 259 274 334 354 0
2 17 32 252 257 272 332 357 0
1 16 31 186 251 256 271 336 341 0
1 16 31 251 256 271 336 366 0
4 19 34 254 259 274 339 374 0
3 18 33 198 253 258 273 343 348 0
3 18 33 253 258 273 343 358 0
1 16 31 251 256 271 341 361 0
3 18 33 253 258 273 348 353 0
5 20 35 255 260 275 350 375 0
3 18 33 203 253 258 273 353 358 0
4 19 34 219 254 259 274 354 374 0
2 17 32 222 252 257 272 357 362 0
1 16 31 236 251 256 271 361 366 0
5 20 35 250 255 260 275 370 375 0
4 54 59 74 254 259 279 284 289 0
3 53 68 83 253 258 278 283 298 0
4 54 254 259 279 284 304 0
3 53 253 258 278 283 308 0
3 53 253 258 278 283 343 0
4 54 254 259 279 284 344 0
3 53 253 258 278 283 353 0
4 54 254 259 279 284 359 0
4 59 254 259 279 289 324 0
4 59 254 259 279 289 339 0
4 59 254 259 279 289 354 0
2 62 67 97 252 257 277 292 297 0
2 62 252 257 277 292 302 0
2 62 252 257 277 292 332 0
2 62 252 257 277 292 362 0
3 68 253 258 278 298 318 0
2 67 252 257 277 297 322 0
2 67 252 257 277 297 327 0
3 68 253 258 278 298 328 0
2 67 252 257 277 297 357 0
3 68 253 258 278 298 363 0
2 117 252 257 277 302 322 0
4 119 254 259 279 304 324 0
2 252 257 277 302 327 0
4 254 259 279 304 339 0
4 254 259 279 304 354 0
2 252 257 277 302 357 0
3 128 253 258 278 308 318 0
3 253 258 278 308 328 0
3 253 258 278 308 363 0
3 253 258 278 318 343 0
3 253 258 278 318 353 0
2 252 257 277 322 332 0
4 254 259 279 324 344 0
4 254 259 279 324 359 0
2 252 257 277 322 362 0
2 152 252 257 277 327 332 0
3 163 253 258 278 328 343 0
3 253 258 278 328 353 0
2 252 257 277 327 362 0
2 252 257 277 332 357 0
4 189 254 259 279 339 344 0
4 254 259 279 339 359 0
4 254 259 279 344 354 0
3 253 258 278 343 363 0
4 204 254 259 279 354 359 0
3 208 253 258 278 353 363 0
2 222 252 257 277 357 362 0
5 75 80 90 255 260 285 290 295 0
5 75 255 260 285 290 315 0
4 74 254 259 284 289 319 0
4 74 254 259 284 289 334 0
5 75 255 260 285 290 335 0
5 75 255 260 285 290 355 0
4 74 254 259 284 289 374 0
5 80 255 260 285 295 310 0
5 80 255 260 285 295 330 0
5 80 255 260 285 295 375 0
3 83 253 258 283 298 313 0
3 83 253 258 283 298 348 0
3 83 253 258 283 298 358 0
4 114 254 259 284 304 319 0
4 254 259 284 304 334 0
4 254 259 284 304 374 0
3 123 253 258 283 308 313 0
5 125 255 260 285 310 315 0
5 255 260 285 310 335 0
3 253 258 283 308 348 0
5 255 260 285 310 355 0
3 253 258 283 308 358 0
5 255 260 285 315 330 0
3 253 258 283 313 343 0
3 253 258 283 313 353 0
5 255 260 285 315 375 0
4 254 259 284 319 344 0
4 254 259 284 319 359 0
5 155 255 260 285 330 335 0
5 255 260 285 330 355 0
4 179 254 259 284 334 344 0
4 254 259 284 334 359 0
5 255 260 285 335 375 0
3 198 253 258 283 343 348 0
3 253 258 283 343 358 0
4 254 259 284 344 374 0
3 253 258 283 348 353 0
3 203 253 258 283 353 358 0
5 220 255 260 285 355 375 0
4 234 254 259 284 359 374 0
1 86 91 96 251 256 286 291 296 0
5 90 255 260 290 295 305 0
1 86 251 256 286 291 321 0
1 86 251 256 286 291 346 0
5 90 255 260 290 295 350 0
5 90 255 260 290 295 370 0
1 86 251 256 286 291 371 0
1 91 251 256 286 296 316 0
1 91 251 256 286 296 341 0
1 91 251 256 286 296 366 0
5 110 255 260 290 305 315 0
5 255 260 290 305 335 0
5 255 260 290 305 355 0
5 255 260 290 315 350 0
5 255 260 290 315 370 0
1 146 251 256 286 316 321 0
4 149 254 259 289 319 324 0
4 254 259 289 319 339 0
1 251 256 286 316 346 0
4 254 259 289 319 354 0
1 251 256 286 316 371 0
4 254 259 289 324 334 0
1 251 256 286 321 341 0
1 251 256 286 321 366 0
4 254 259 289 324 374 0
4 174 254 259 289 334 339 0
5 185 255 260 290 335 350 0
4 254 259 289 334 354 0
5 255 260 290 335 370 0
4 254 259 289 339 374 0
1 196 251 256 286 341 346 0
1 251 256 286 341 371 0
5 255 260 290 350 355 0
1 251 256 286 346 366 0
5 215 255 260 290 355 370 0
4 219 254 259 289 354 374 0
1 246 251 256 286 366 371 0
2 97 252 257 292 297 307 0
1 96 251 256 291 296 311 0
1 96 251 256 291 296 336 0
2 97 252 257 292 297 337 0
1 96 251 256 291 296 361 0
2 97 252 257 292 297 367 0
2 102 252 257 292 302 307 0
5 105 255 260 295 305 310 0
5 255 260 295 305 330 0
2 252 257 292 302 337 0
2 252 257 292 302 367 0
5 255 260 295 305 375 0
2 252 257 292 307 332 0
5 255 260 295 310 350 0
2 252 257 292 307 362 0
5 255 260 295 310 370 0
1 141 251 256 291 311 321 0
1 251 256 291 311 346 0
1 251 256 291 311 371 0
1 251 256 291 321 336 0
1 251 256 291 321 361 0
5 170 255 260 295 330 350 0
5 255 260 295 330 370 0
2 172 252 257 292 332 337 0
2 252 257 292 332 367 0
1 191 251 256 291 336 346 0
2 252 257 292 337 362 0
1 251 256 291 336 371 0
1 251 256 291 346 361 0
5 255 260 295 350 375 0
2 237 252 257 292 362 367 0
1 241 251 256 291 361 371 0
5 250 255 260 295 370 375 0
2 132 252 257 297 307 322 0
2 252 257 297 307 327 0
2 252 257 297 307 357 0
1 136 251 256 296 311 316 0
3 138 253 258 298 313 318 0
3 253 258 298 313 328 0
1 251 256 296 311 341 0
3 253 258 298 313 363 0
1 251 256 296 311 366 0
1 251 256 296 316 336 0
3 253 258 298 318 348 0
3 253 258 298 318 358 0
1 251 256 296 316 361 0
2 252 257 297 322 337 0
2 252 257 297 322 367 0
2 157 252 257 297 327 337 0
3 168 253 258 298 328 348 0
3 253 258 298 328 358 0
2 252 257 297 327 367 0
1 186 251 256 296 336 341 0
2 252 257 297 337 357 0
1 251 256 296 336 366 0
1 251 256 296 341 361 0
3 253 258 298 348 363 0
3 223 253 258 298 358 363 0
2 227 252 257 297 357 367 0
1 236 251 256 296 361 366 0
5 105 110 125 255 260 305 310 315 0
2 102 117 132 252 257 302 307 322 0
2 102 252 257 302 307 327 0
5 105 255 260 305 310 335 0
5 105 255 260 305 310 355 0
2 102 252 257 302 307 357 0
5 110 255 260 305 315 330 0
5 110 255 260 305 315 375 0
4 114 119 149 254 259 304 319 324 0
4 114 254 259 304 319 339 0
4 114 254 259 304 319 354 0
4 119 254 259 304 324 334 0
2 117 252 257 302 322 337 0
2 117 252 257 302 322 367 0
4 119 254 259 304 324 374 0
5 155 255 260 305 330 335 0
2 157 252 257 302 327 337 0
5 255 260 305 330 355 0
2 252 257 302 327 367 0
4 174 254 259 304 334 339 0
4 254 259 304 334 354 0
5 255 260 305 335 375 0
2 252 257 302 337 357 0
4 254 259 304 339 374 0
4 219 254 259 304 354 374 0
5 220 255 260 305 355 375 0
2 227 252 257 302 357 367 0
3 123 128 138 253 258 308 313 318 0
3 123 253 258 308 313 328 0
5 125 255 260 310 315 350 0
3 123 253 258 308 313 363 0
5 125 255 260 310 315 370 0
3 128 253 258 308 318 348 0
3 128 253 258 308 318 358 0
2 132 252 257 307 322 332 0
2 132 252 257 307 322 362 0
2 152 252 257 307 327 332 0
3 168 253 258 308 328 348 0
3 253 258 308 328 358 0
2 252 257 307 327 362 0
5 185 255 260 310 335 350 0
2 252 257 307 332 357 0
5 255 260 310 335 370 0
5 255 260 310 350 355 0
3 253 258 308 348 363 0
5 215 255 260 310 355 370 0
2 222 252 257 307 357 362 0
3 223 253 258 308 358 363 0
1 136 141 146 251 256 311 316 321 0
3 138 253 258 313 318 343 0
1 136 251 256 311 316 346 0
3 138 253 258 313 318 353 0
1 136 251 256 311 316 371 0
1 141 251 256 311 321 341 0
1 141 251 256 311 321 366 0
3 163 253 258 313 328 343 0
5 170 255 260 315 330 350 0
3 253 258 313 328 353 0
5 255 260 315 330 370 0
1 196 251 256 311 341 346 0
3 253 258 313 343 363 0
1 251 256 311 341 371 0
1 251 256 311 346 366 0
5 255 260 315 350 375 0
3 208 253 258 313 353 363 0
1 246 251 256 311 366 371 0
5 250 255 260 315 370 375 0
1 146 251 256 316 321 336 0
4 149 254 259 319 324 344 0
4 149 254 259 319 324 359 0
1 146 251 256 316 321 361 0
4 189 254 259 319 339 344 0
1 191 251 256 316 336 346 0
4 254 259 319 339 359 0
1 251 256 316 336 371 0
3 198 253 258 318 343 348 0
4 254 259 319 344 354 0
3 253 258 318 343 358 0
3 253 258 318 348 353 0
1 251 256 316 346 361 0
3 203 253 258 318 353 358 0
4 204 254 259 319 354 359 0
1 241 251 256 316 361 371 0
2 172 252 257 322 332 337 0
4 179 254 259 324 334 344 0
4 254 259 324 334 359 0
2 252 257 322 332 367 0
1 186 251 256 321 336 341 0
2 252 257 322 337 362 0
1 251 256 321 336 366 0
1 251 256 321 341 361 0
4 254 259 324 344 374 0
4 234 254 259 324 359 374 0
1 236 251 256 321 361 366 0
2 237 252 257 322 362 367 0
2 152 157 172 252 257 327 332 337 0
5 155 170 185 255 260 330 335 350 0
2 152 252 257 327 332 367 0
5 155 255 260 330 335 370 0
2 157 252 257 327 337 362 0
3 163 168 198 253 258 328 343 348 0
3 163 253 258 328 343 358 0
3 168 253 258 328 348 353 0
5 170 255 260 330 350 355 0
3 203 253 258 328 353 358 0
5 215 255 260 330 355 370 0
2 237 252 257 327 362 367 0
4 174 179 189 254 259 334 339 344 0
2 172 252 257 332 337 357 0
4 174 254 259 334 339 359 0
4 179 254 259 334 344 354 0
5 185 255 260 335 350 375 0
4 204 254 259 334 354 359 0
2 227 252 257 332 357 367 0
5 250 255 260 335 370 375 0
1 186 191 196 251 256 336 341 346 0
1 186 251 256 336 341 371 0
4 189 254 259 339 344 374 0
1 191 251 256 336 346 366 0
2 222 252 257 337 357 362 0
4 234 254 259 339 359 374 0
1 246 251 256 336 366 371 0
1 196 251 256 341 346 361 0
3 198 253 258 343 348 363 0
4 219 254 259 344 354 374 0
3 223 253 258 343 358 363 0
1 241 251 256 341 361 371 0
3 208 253 258 348 353 363 0
5 220 255 260 350 355 375 0
1 236 251 256 346 361 366 0
3 203 208 223 253 258 353 358 363 0
4 204 219 234 254 259 354 359 374 0
5 215 220 250 255 260 355 370 375 0
2 222 227 237 252 257 357 362 367 0
1 236 241 246 251 256 361 366 371 0
10 15 20 40 45 50 255 265 270 275 280 0
6 11 16 36 41 46 251 261 266 271 281 0
7 12 17 37 42 47 252 262 267 272 287 0
8 13 18 38 43 48 253 263 268 273 293 0
9 14 19 39 44 49 254 264 269 274 299 0
8 13 18 38 43 48 253 263 268 273 303 0
6 11 16 36 41 46 251 261 266 271 306 0
9 14 19 39 44 49 254 264 269 274 314 0
7 12 17 37 42 47 252 262 267 272 317 0
10 15 20 40 45 50 255 265 270 275 325 0
9 14 19 39 44 49 254 264 269 274 329 0
6 11 16 36 41 46 251 261 266 271 331 0
8 13 18 38 43 48 253 263 268 273 338 0
10 15 20 40 45 50 255 265 270 275 345 0
7 12 17 37 42 47 252 262 267 272 347 0
7 12 17 37 42 47 252 262 267 272 352 0
6 11 16 36 41 46 251 261 266 271 356 0
10 15 20 40 45 50 255 265 270 275 365 0
9 14 19 39 44 49 254 264 269 274 369 0
8 13 18 38 43 48 253 263 268 273 373 0
7 12 37 57 252 262 267 277 287 0
10 15 40 65 255 265 270 280 295 0
10 15 40 255 265 270 280 315 0
7 12 37 252 262 267 277 317 0
10 15 40 255 265 270 280 335 0
7 12 37 252 262 267 277 347 0
7 12 37 252 262 267 277 352 0
10 15 40 255 265 270 280 355 0
8 13 38 78 253 263 268 283 293 0
6 11 36 81 251 261 266 281 296 0
8 13 38 253 263 268 283 303 0
6 11 36 251 261 266 281 321 0
8 13 38 253 263 268 283 338 0
6 11 36 251 261 266 281 346 0
6 11 36 251 261 266 281 371 0
8 13 38 253 263 268 283 373 0
9 14 39 94 254 264 269 289 299 0
7 12 37 252 262 267 287 307 0
9 14 39 254 264 269 289 314 0
9 14 39 254 264 269 289 329 0
7 12 37 252 262 267 287 337 0
7 12 37 252 262 267 287 367 0
9 14 39 254 264 269 289 369 0
8 13 38 253 263 268 293 318 0
10 15 40 255 265 270 295 325 0
8 13 38 253 263 268 293 328 0
10 15 40 255 265 270 295 345 0
8 13 38 253 263 268 293 363 0
10 15 40 255 265 270 295 365 0
9 14 39 254 264 269 299 304 0
6 11 36 251 261 266 296 306 0
6 11 36 251 261 266 296 331 0
9 14 39 254 264 269 299 344 0
6 11 36 251 261 266 296 356 0
9 14 39 254 264 269 299 359 0
9 14 39 109 254 264 269 304 314 0
8 13 38 113 253 263 268 303 318 0
8 13 38 253 263 268 303 328 0
9 14 39 254 264 269 304 329 0
8 13 38 253 263 268 303 363 0
9 14 39 254 264 269 304 369 0
7 12 37 127 252 262 267 307 317 0
6 11 36 131 251 261 266 306 321 0
6 11 36 251 261 266 306 346 0
7 12 37 252 262 267 307 347 0
7 12 37 252 262 267 307 352 0
6 11 36 251 261 266 306 371 0
10 15 40 145 255 265 270 315 325 0
9 14 39 254 264 269 314 344 0
10 15 40 255 265 270 315 345 0
9 14 39 254 264 269 314 359 0
10 15 40 255 265 270 315 365 0
7 12 37 252 262 267 317 337 0
8 13 38 253 263 268 318 338 0
7 12 37 252 262 267 317 367 0
8 13 38 253 263 268 318 373 0
6 11 36 251 261 266 321 331 0
10 15 40 255 265 270 325 335 0
10 15 40 255 265 270 325 355 0
6 11 36 251 261 266 321 356 0
8 13 38 158 253 263 268 328 338 0
9 14 39 164 254 264 269 329 344 0
9 14 39 254 264 269 329 359 0
8 13 38 253 263 268 328 373 0
10 15 40 180 255 265 270 335 345 0
6 11 36 181 251 261 266 331 346 0
10 15 40 255 265 270 335 365 0
6 11 36 251 261 266 331 371 0
7 12 37 192 252 262 267 337 347 0
7 12 37 252 262 267 337 352 0
8 13 38 253 263 268 338 363 0
10 15 40 255 265 270 345 355 0
9 14 39 254 264 269 344 369 0
6 11 36 251 261 266 346 356 0
7 12 37 252 262 267 347 367 0
10 15 40 210 255 265 270 355 365 0
7 12 37 212 252 262 267 352 367 0
9 14 39 229 254 264 269 359 369 0
6 11 36 231 251 261 266 356 371 0
8 13 38 243 253 263 268 363 373 0
10 20 45 60 255 265 275 280 290 0
8 18 43 63 253 263 273 278 293 0
8 18 43 253 263 273 278 303 0
10 20 45 255 265 275 280 310 0
10 20 45 255 265 275 280 330 0
8 18 43 253 263 273 278 338 0
8 18 43 253 263 273 278 373 0
10 20 45 255 265 275 280 375 0
6 16 41 76 251 261 271 281 291 0
9 19 44 84 254 264 274 284 299 0
9 19 44 254 264 274 284 314 0
6 16 41 251 261 271 281 316 0
9 19 44 254 264 274 284 329 0
6 16 41 251 261 271 281 341 0
6 16 41 251 261 271 281 366 0
9 19 44 254 264 274 284 369 0
7 17 42 92 252 262 272 287 297 0
7 17 42 252 262 272 287 302 0
10 20 45 255 265 275 290 325 0
7 17 42 252 262 272 287 332 0
10 20 45 255 265 275 290 345 0
7 17 42 252 262 272 287 362 0
10 20 45 255 265 275 290 365 0
6 16 41 251 261 271 291 306 0
8 18 43 253 263 273 293 313 0
6 16 41 251 261 271 291 331 0
8 18 43 253 263 273 293 348 0
6 16 41 251 261 271 291 356 0
8 18 43 253 263 273 293 358 0
7 17 42 252 262 272 297 317 0
9 19 44 254 264 274 299 324 0
9 19 44 254 264 274 299 339 0
7 17 42 252 262 272 297 347 0
7 17 42 252 262 272 297 352 0
9 19 44 254 264 274 299 354 0
8 18 43 108 253 263 273 303 313 0
7 17 42 112 252 262 272 302 317 0
7 17 42 252 262 272 302 347 0
8 18 43 253 263 273 303 348 0
7 17 42 252 262 272 302 352 0
8 18 43 253 263 273 303 358 0
6 16 41 126 251 261 271 306 316 0
10 20 45 135 255 265 275 310 325 0
6 16 41 251 261 271 306 341 0
10 20 45 255 265 275 310 345 0
10 20 45 255 265 275 310 365 0
6 16 41 251 261 271 306 366 0
9 19 44 144 254 264 274 314 324 0
8 18 43 253 263 273 313 338 0
9 19 44 254 264 274 314 339 0
9 19 44 254 264 274 314 354 0
8 18 43 253 263 273 313 373 0
6 16 41 251 261 271 316 331 0
7 17 42 252 262 272 317 332 0
6 16 41 251 261 271 316 356 0
7 17 42 252 262 272 317 362 0
9 19 44 254 264 274 324 329 0
10 20 45 255 265 275 325 330 0
9 19 44 254 264 274 324 369 0
10 20 45 255 265 275 325 375 0
9 19 44 159 254 264 274 329 339 0
10 20 45 165 255 265 275 330 345 0
9 19 44 254 264 274 329 354 0
10 20 45 255 265 275 330 365 0
6 16 41 176 251 261 271 331 341 0
7 17 42 182 252 262 272 332 347 0
7 17 42 252 262 272 332 352 0
6 16 41 251 261 271 331 366 0
8 18 43 193 253 263 273 338 348 0
8 18 43 253 263 273 338 358 0
9 19 44 254 264 274 339 369 0
6 16 41 251 261 271 341 356 0
10 20 45 255 265 275 345 375 0
7 17 42 252 262 272 347 362 0
8 18 43 253 263 273 348 373 0
7 17 42 207 252 262 272 352 362 0
9 19 44 214 254 264 274 354 369 0
6 16 41 226 251 261 271 356 366 0
8 18 43 233 253 263 273 358 373 0
10 20 45 245 255 265 275 365 375 0
8 53 63 78 253 263 278 283 293 0
8 53 253 263 278 283 303 0
8 53 253 263 278 283 338 0
8 53 253 263 278 283 373 0
10 60 65 90 255 265 280 290 295 0
7 57 67 92 252 262 277 287 297 0
7 57 252 262 277 287 302 0
10 60 255 265 280 290 315 0
7 57 252 262 277 287 332 0
10 60 255 265 280 290 335 0
10 60 255 265 280 290 355 0
7 57 252 262 277 287 362 0
10 65 255 265 280 295 310 0
8 63 253 263 278 293 318 0
8 63 253 263 278 293 328 0
10 65 255 265 280 295 330 0
8 63 253 263 278 293 363 0
10 65 255 265 280 295 375 0
7 67 252 262 277 297 317 0
7 67 252 262 277 297 347 0
7 67 252 262 277 297 352 0
7 112 252 262 277 302 317 0
8 113 253 263 278 303 318 0
8 253 263 278 303 328 0
7 252 262 277 302 347 0
7 252 262 277 302 352 0
8 253 263 278 303 363 0
10 125 255 265 280 310 315 0
10 255 265 280 310 335 0
10 255 265 280 310 355 0
10 255 265 280 315 330 0
10 255 265 280 315 375 0
7 252 262 277 317 332 0
8 253 263 278 318 338 0
7 252 262 277 317 362 0
8 253 263 278 318 373 0
10 155 255 265 280 330 335 0
8 158 253 263 278 328 338 0
10 255 265 280 330 355 0
8 253 263 278 328 373 0
7 182 252 262 277 332 347 0
7 252 262 277 332 352 0
10 255 265 280 335 375 0
8 253 263 278 338 363 0
7 252 262 277 347 362 0
7 207 252 262 277 352 362 0
10 220 255 265 280 355 375 0
8 243 253 263 278 363 373 0
9 74 84 94 254 264 284 289 299 0
9 74 254 264 284 289 314 0
9 74 254 264 284 289 329 0
9 74 254 264 284 289 369 0
6 76 81 96 251 261 281 291 296 0
8 78 253 263 283 293 313 0
6 76 251 261 281 291 321 0
6 76 251 261 281 291 346 0
8 78 253 263 283 293 348 0
8 78 253 263 283 293 358 0
6 76 251 261 281 291 371 0
9 84 254 264 284 299 304 0
6 81 251 261 281 296 316 0
6 81 251 261 281 296 341 0
9 84 254 264 284 299 344 0
9 84 254 264 284 299 359 0
6 81 251 261 281 296 366 0
8 108 253 263 283 303 313 0
9 109 254 264 284 304 314 0
9 254 264 284 304 329 0
8 253 263 283 303 348 0
8 253 263 283 303 358 0
9 254 264 284 304 369 0
8 253 263 283 313 338 0
9 254 264 284 314 344 0
9 254 264 284 314 359 0
8 253 263 283 313 373 0
6 146 251 261 281 316 321 0
6 251 261 281 316 346 0
6 251 261 281 316 371 0
6 251 261 281 321 341 0
6 251 261 281 321 366 0
9 164 254 264 284 329 344 0
9 254 264 284 329 359 0
8 193 253 263 283 338 348 0
8 253 263 283 338 358 0
6 196 251 261 281 341 346 0
9 254 264 284 344 369 0
6 251 261 281 341 371 0
6 251 261 281 346 366 0
8 253 263 283 348 373 0
9 229 254 264 284 359 369 0
8 233 253 263 283 358 373 0
6 246 251 261 281 366 371 0
10 90 255 265 290 295 325 0
10 90 255 265 290 295 345 0
10 90 255 265 290 295 365 0
7 92 252 262 287 297 307 0
9 94 254 264 289 299 324 0
7 92 252 262 287 297 337 0
9 94 254 264 289 299 339 0
9 94 254 264 289 299 354 0
7 92 252 262 287 297 367 0
7 102 252 262 287 302 307 0
7 252 262 287 302 337 0
7 252 262 287 302 367 0
7 252 262 287 307 332 0
7 252 262 287 307 362 0
9 144 254 264 289 314 324 0
10 145 255 265 290 315 325 0
9 254 264 289 314 339 0
10 255 265 290 315 345 0
9 254 264 289 314 354 0
10 255 265 290 315 365 0
9 254 264 289 324 329 0
10 255 265 290 325 335 0
10 255 265 290 325 355 0
9 254 264 289 324 369 0
9 159 254 264 289 329 339 0
9 254 264 289 329 354 0
7 172 252 262 287 332 337 0
10 180 255 265 290 335 345 0
10 255 265 290 335 365 0
7 252 262 287 332 367 0
7 252 262 287 337 362 0
9 254 264 289 339 369 0
10 255 265 290 345 355 0
10 210 255 265 290 355 365 0
9 214 254 264 289 354 369 0
7 237 252 262 287 362 367 0
6 96 251 261 291 296 306 0
6 96 251 261 291 296 331 0
6 96 251 261 291 296 356 0
6 131 251 261 291 306 321 0
10 135 255 265 295 310 325 0
10 255 265 295 310 345 0
6 251 261 291 306 346 0
10 255 265 295 310 365 0
6 251 261 291 306 371 0
8 138 253 263 293 313 318 0
8 253 263 293 313 328 0
8 253 263 293 313 363 0
8 253 263 293 318 348 0
8 253 263 293 318 358 0
10 255 265 295 325 330 0
6 251 261 291 321 331 0
6 251 261 291 321 356 0
10 255 265 295 325 375 0
10 165 255 265 295 330 345 0
8 168 253 263 293 328 348 0
8 253 263 293 328 358 0
10 255 265 295 330 365 0
6 181 251 261 291 331 346 0
6 251 261 291 331 371 0
10 255 265 295 345 375 0
6 251 261 291 346 356 0
8 253 263 293 348 363 0
8 223 253 263 293 358 363 0
6 231 251 261 291 356 371 0
10 245 255 265 295 365 375 0
9 119 254 264 299 304 324 0
9 254 264 299 304 339 0
9 254 264 299 304 354 0
6 126 251 261 296 306 316 0
7 127 252 262 297 307 317 0
6 251 261 296 306 341 0
7 252 262 297 307 347 0
7 252 262 297 307 352 0
6 251 261 296 306 366 0
6 251 261 296 316 331 0
7 252 262 297 317 337 0
6 251 261 296 316 356 0
7 252 262 297 317 367 0
9 254 264 299 324 344 0
9 254 264 299 324 359 0
6 176 251 261 296 331 341 0
6 251 261 296 331 366 0
9 189 254 264 299 339 344 0
7 192 252 262 297 337 347 0
7 252 262 297 337 352 0
9 254 264 299 339 359 0
9 254 264 299 344 354 0
6 251 261 296 341 356 0
7 252 262 297 347 367 0
9 204 254 264 299 354 359 0
7 212 252 262 297 352 367 0
6 226 251 261 296 356 366 0
7 102 112 127 252 262 302 307 317 0
7 102 252 262 302 307 347 0
7 102 252 262 302 307 352 0
8 108 113 138 253 263 303 313 318 0
9 109 119 144 254 264 304 314 324 0
8 108 253 263 303 313 328 0
9 109 254 264 304 314 339 0
9 109 254 264 304 314 354 0
8 108 253 263 303 313 363 0
7 112 252 262 302 317 337 0
8 113 253 263 303 318 348 0
8 113 253 263 303 318 358 0
7 112 252 262 302 317 367 0
9 119 254 264 304 324 329 0
9 119 254 264 304 324 369 0
9 159 254 264 304 329 339 0
8 168 253 263 303 328 348 0
9 254 264 304 329 354 0
8 253 263 303 328 358 0
7 192 252 262 302 337 347 0
7 252 262 302 337 352 0
9 254 264 304 339 369 0
8 253 263 303 348 363 0
7 252 262 302 347 367 0
7 212 252 262 302 352 367 0
9 214 254 264 304 354 369 0
8 223 253 263 303 358 363 0
10 125 135 145 255 265 310 315 325 0
10 125 255 265 310 315 345 0
10 125 255 265 310 315 365 0
6 126 131 146 251 261 306 316 321 0
7 127 252 262 307 317 332 0
6 126 251 261 306 316 346 0
7 127 252 262 307 317 362 0
6 126 251 261 306 316 371 0
10 135 255 265 310 325 335 0
6 131 251 261 306 321 341 0
10 135 255 265 310 325 355 0
6 131 251 261 306 321 366 0
10 180 255 265 310 335 345 0
7 182 252 262 307 332 347 0
7 252 262 307 332 352 0
10 255 265 310 335 365 0
6 196 251 261 306 341 346 0
10 255 265 310 345 355 0
6 251 261 306 341 371 0
7 252 262 307 347 362 0
6 251 261 306 346 366 0
7 207 252 262 307 352 362 0
10 210 255 265 310 355 365 0
6 246 251 261 306 366 371 0
8 138 253 263 313 318 338 0
8 138 253 263 313 318 373 0
10 145 255 265 315 325 330 0
9 144 254 264 314 324 344 0
9 144 254 264 314 324 359 0
10 145 255 265 315 325 375 0
8 158 253 263 313 328 338 0
10 165 255 265 315 330 345 0
10 255 265 315 330 365 0
8 253 263 313 328 373 0
9 189 254 264 314 339 344 0
9 254 264 314 339 359 0
8 253 263 313 338 363 0
9 254 264 314 344 354 0
10 255 265 315 345 375 0
9 204 254 264 314 354 359 0
8 243 253 263 313 363 373 0
10 245 255 265 315 365 375 0
6 146 251 261 316 321 331 0
6 146 251 261 316 321 356 0
7 172 252 262 317 332 337 0
6 181 251 261 316 331 346 0
7 252 262 317 332 367 0
6 251 261 316 331 371 0
8 193 253 263 318 338 348 0
8 253 263 318 338 358 0
7 252 262 317 337 362 0
6 251 261 316 346 356 0
8 253 263 318 348 373 0
6 231 251 261 316 356 371 0
8 233 253 263 318 358 373 0
7 237 252 262 317 362 367 0
10 155 255 265 325 330 335 0
9 164 254 264 324 329 344 0
10 255 265 325 330 355 0
9 254 264 324 329 359 0
6 176 251 261 321 331 341 0
6 251 261 321 331 366 0
10 255 265 325 335 375 0
6 251 261 321 341 356 0
9 254 264 324 344 369 0
10 220 255 265 325 355 375 0
6 226 251 261 321 356 366 0
9 229 254 264 324 359 369 0
10 155 165 180 255 265 330 335 345 0
10 155 255 265 330 335 365 0
9 159 164 189 254 264 329 339 344 0
8 158 168 193 253 263 328 338 348 0
8 158 253 263 328 338 358 0
9 159 254 264 329 339 359 0
9 164 254 264 329 344 354 0
10 165 255 265 330 345 355 0
8 168 253 263 328 348 373 0
9 204 254 264 329 354 359 0
10 210 255 265 330 355 365 0
8 233 253 263 328 358 373 0
7 172 182 192 252 262 332 337 347 0
7 172 252 262 332 337 352 0
6 176 181 196 251 261 331 341 346 0
6 176 251 261 331 341 371 0
10 180 255 265 335 345 375 0
6 181 251 261 331 346 366 0
7 182 252 262 332 347 367 0
7 212 252 262 332 352 367 0
10 245 255 265 335 365 375 0
6 246 251 261 331 366 371 0
9 189 254 264 339 344 369 0
7 192 252 262 337 347 362 0
8 193 253 263 338 348 363 0
7 207 252 262 337 352 362 0
8 223 253 263 338 358 363 0
9 229 254 264 339 359 369 0
6 196 251 261 341 346 356 0
9 214 254 264 344 354 369 0
10 220 255 265 345 355 375 0
6 231 251 261 341 356 371 0
6 226 251 261 346 356 366 0
7 237 252 262 347 362 367 0
8 243 253 263 348 363 373 0
9 204 214 229 254 264 354 359 369 0
7 207 212 237 252 262 352 362 367 0
10 210 220 245 255 265 355 365 375 0
8 223 233 243 253 263 358 363 373 0
6 226 231 246 251 261 356 366 371 0
15 20 50 55 255 270 275 280 285 0
14 19 49 69 254 269 274 279 299 0
15 20 50 255 270 275 280 305 0
14 19 49 254 269 274 279 314 0
14 19 49 254 269 274 279 329 0
15 20 50 255 270 275 280 350 0
14 19 49 254 269 274 279 369 0
15 20 50 255 270 275 280 370 0
11 16 46 71 251 266 271 281 286 0
11 16 46 251 266 271 281 311 0
15 20 50 255 270 275 285 325 0
11 16 46 251 266 271 281 336 0
15 20 50 255 270 275 285 345 0
11 16 46 251 266 271 281 361 0
15 20 50 255 270 275 285 365 0
12 17 47 87 252 267 272 287 292 0
11 16 46 251 266 271 286 306 0
12 17 47 252 267 272 287 322 0
12 17 47 252 267 272 287 327 0
11 16 46 251 266 271 286 331 0
11 16 46 251 266 271 286 356 0
12 17 47 252 267 272 287 357 0
13 18 48 98 253 268 273 293 298 0
13 18 48 253 268 273 293 308 0
12 17 47 252 267 272 292 317 0
13 18 48 253 268 273 293 343 0
12 17 47 252 267 272 292 347 0
12 17 47 252 267 272 292 352 0
13 18 48 253 268 273 293 353 0
13 18 48 253 268 273 298 303 0
14 19 49 254 269 274 299 319 0
14 19 49 254 269 274 299 334 0
13 18 48 253 268 273 298 338 0
13 18 48 253 268 273 298 373 0
14 19 49 254 269 274 299 374 0
13 18 48 103 253 268 273 303 308 0
15 20 50 120 255 270 275 305 325 0
13 18 48 253 268 273 303 343 0
15 20 50 255 270 275 305 345 0
13 18 48 253 268 273 303 353 0
15 20 50 255 270 275 305 365 0
11 16 46 121 251 266 271 306 311 0
11 16 46 251 266 271 306 336 0
13 18 48 253 268 273 308 338 0
11 16 46 251 266 271 306 361 0
13 18 48 253 268 273 308 373 0
14 19 49 139 254 269 274 314 319 0
11 16 46 251 266 271 311 331 0
14 19 49 254 269 274 314 334 0
11 16 46 251 266 271 311 356 0
14 19 49 254 269 274 314 374 0
12 17 47 147 252 267 272 317 322 0
12 17 47 252 267 272 317 327 0
14 19 49 254 269 274 319 329 0
12 17 47 252 267 272 317 357 0
14 19 49 254 269 274 319 369 0
12 17 47 252 267 272 322 347 0
15 20 50 255 270 275 325 350 0
12 17 47 252 267 272 322 352 0
15 20 50 255 270 275 325 370 0
14 19 49 154 254 269 274 329 334 0
12 17 47 167 252 267 272 327 347 0
12 17 47 252 267 272 327 352 0
14 19 49 254 269 274 329 374 0
11 16 46 171 251 266 271 331 336 0
11 16 46 251 266 271 331 361 0
14 19 49 254 269 274 334 369 0
13 18 48 188 253 268 273 338 343 0
13 18 48 253 268 273 338 353 0
11 16 46 251 266 271 336 356 0
15 20 50 200 255 270 275 345 350 0
15 20 50 255 270 275 345 370 0
13 18 48 253 268 273 343 373 0
12 17 47 252 267 272 347 357 0
15 20 50 255 270 275 350 365 0
12 17 47 202 252 267 272 352 357 0
13 18 48 218 253 268 273 353 373 0
11 16 46 221 251 266 271 356 361 0
15 20 50 240 255 270 275 365 370 0
14 19 49 249 254 269 274 369 374 0
15 55 65 80 255 270 280 285 295 0
15 55 255 270 280 285 315 0
15 55 255 270 280 285 335 0
15 55 255 270 280 285 355 0
12 57 62 87 252 267 277 287 292 0
14 59 69 94 254 269 279 289 299 0
14 59 254 269 279 289 314 0
12 57 252 267 277 287 322 0
12 57 252 267 277 287 327 0
14 59 254 269 279 289 329 0
12 57 252 267 277 287 357 0
14 59 254 269 279 289 369 0
15 65 255 270 280 295 305 0
12 62 252 267 277 292 317 0
12 62 252 267 277 292 347 0
15 65 255 270 280 295 350 0
12 62 252 267 277 292 352 0
15 65 255 270 280 295 370 0
14 69 254 269 279 299 304 0
14 69 254 269 279 299 344 0
14 69 254 269 279 299 359 0
14 109 254 269 279 304 314 0
15 110 255 270 280 305 315 0
14 254 269 279 304 329 0
15 255 270 280 305 335 0
15 255 270 280 305 355 0
14 254 269 279 304 369 0
14 254 269 279 314 344 0
15 255 270 280 315 350 0
14 254 269 279 314 359 0
15 255 270 280 315 370 0
12 147 252 267 277 317 322 0
12 252 267 277 317 327 0
12 252 267 277 317 357 0
12 252 267 277 322 347 0
12 252 267 277 322 352 0
14 164 254 269 279 329 344 0
12 167 252 267 277 327 347 0
12 252 267 277 327 352 0
14 254 269 279 329 359 0
15 185 255 270 280 335 350 0
15 255 270 280 335 370 0
14 254 269 279 344 369 0
15 255 270 280 350 355 0
12 252 267 277 347 357 0
12 202 252 267 277 352 357 0
15 215 255 270 280 355 370 0
14 229 254 269 279 359 369 0
11 71 81 91 251 266 281 286 296 0
11 71 251 266 281 286 321 0
11 71 251 266 281 286 346 0
11 71 251 266 281 286 371 0
13 78 83 98 253 268 283 293 298 0
13 78 253 268 283 293 308 0
15 80 255 270 285 295 325 0
13 78 253 268 283 293 343 0
15 80 255 270 285 295 345 0
13 78 253 268 283 293 353 0
15 80 255 270 285 295 365 0
13 83 253 268 283 298 303 0
11 81 251 266 281 296 311 0
11 81 251 266 281 296 336 0
13 83 253 268 283 298 338 0
11 81 251 266 281 296 361 0
13 83 253 268 283 298 373 0
13 103 253 268 283 303 308 0
13 253 268 283 303 343 0
13 253 268 283 303 353 0
13 253 268 283 308 338 0
13 253 268 283 308 373 0
11 141 251 266 281 311 321 0
15 145 255 270 285 315 325 0
15 255 270 285 315 345 0
11 251 266 281 311 346 0
15 255 270 285 315 365 0
11 251 266 281 311 371 0
15 255 270 285 325 335 0
11 251 266 281 321 336 0
15 255 270 285 325 355 0
11 251 266 281 321 361 0
15 180 255 270 285 335 345 0
15 255 270 285 335 365 0
13 188 253 268 283 338 343 0
11 191 251 266 281 336 346 0
13 253 268 283 338 353 0
11 251 266 281 336 371 0
15 255 270 285 345 355 0
13 253 268 283 343 373 0
11 251 266 281 346 361 0
15 210 255 270 285 355 365 0
13 218 253 268 283 353 373 0
11 241 251 266 281 361 371 0
12 87 252 267 287 292 307 0
12 87 252 267 287 292 337 0
12 87 252 267 287 292 367 0
11 91 251 266 286 296 306 0
14 94 254 269 289 299 319 0
11 91 251 266 286 296 331 0
14 94 254 269 289 299 334 0
11 91 251 266 286 296 356 0
14 94 254 269 289 299 374 0
11 131 251 266 286 306 321 0
12 132 252 267 287 307 322 0
12 252 267 287 307 327 0
11 251 266 286 306 346 0
12 252 267 287 307 357 0
11 251 266 286 306 371 0
14 139 254 269 289 314 319 0
14 254 269 289 314 334 0
14 254 269 289 314 374 0
14 254 269 289 319 329 0
14 254 269 289 319 369 0
11 251 266 286 321 331 0
12 252 267 287 322 337 0
11 251 266 286 321 356 0
12 252 267 287 322 367 0
14 154 254 269 289 329 334 0
12 157 252 267 287 327 337 0
12 252 267 287 327 367 0
14 254 269 289 329 374 0
11 181 251 266 286 331 346 0
14 254 269 289 334 369 0
11 251 266 286 331 371 0
12 252 267 287 337 357 0
11 251 266 286 346 356 0
12 227 252 267 287 357 367 0
11 231 251 266 286 356 371 0
14 249 254 269 289 369 374 0
13 98 253 268 293 298 318 0
13 98 253 268 293 298 328 0
13 98 253 268 293 298 363 0
15 120 255 270 295 305 325 0
15 255 270 295 305 345 0
15 255 270 295 305 365 0
12 127 252 267 292 307 317 0
13 128 253 268 293 308 318 0
13 253 268 293 308 328 0
12 252 267 292 307 347 0
12 252 267 292 307 352 0
13 253 268 293 308 363 0
12 252 267 292 317 337 0
13 253 268 293 318 343 0
13 253 268 293 318 353 0
12 252 267 292 317 367 0
15 255 270 295 325 350 0
15 255 270 295 325 370 0
13 163 253 268 293 328 343 0
13 253 268 293 328 353 0
12 192 252 267 292 337 347 0
12 252 267 292 337 352 0
15 200 255 270 295 345 350 0
13 253 268 293 343 363 0
15 255 270 295 345 370 0
15 255 270 295 350 365 0
12 252 267 292 347 367 0
13 208 253 268 293 353 363 0
12 212 252 267 292 352 367 0
15 240 255 270 295 365 370 0
13 113 253 268 298 303 318 0
14 114 254 269 299 304 319 0
13 253 268 298 303 328 0
14 254 269 299 304 334 0
13 253 268 298 303 363 0
14 254 269 299 304 374 0
11 121 251 266 296 306 311 0
11 251 266 296 306 336 0
11 251 266 296 306 361 0
11 251 266 296 311 331 0
11 251 266 296 311 356 0
13 253 268 298 318 338 0
14 254 269 299 319 344 0
14 254 269 299 319 359 0
13 253 268 298 318 373 0
13 158 253 268 298 328 338 0
13 253 268 298 328 373 0
11 171 251 266 296 331 336 0
14 179 254 269 299 334 344 0
14 254 269 299 334 359 0
11 251 266 296 331 361 0
11 251 266 296 336 356 0
13 253 268 298 338 363 0
14 254 269 299 344 374 0
11 221 251 266 296 356 361 0
14 234 254 269 299 359 374 0
13 243 253 268 298 363 373 0
13 103 113 128 253 268 303 308 318 0
13 103 253 268 303 308 328 0
13 103 253 268 303 308 363 0
14 109 114 139 254 269 304 314 319 0
15 110 120 145 255 270 305 315 325 0
14 109 254 269 304 314 334 0
15 110 255 270 305 315 345 0
15 110 255 270 305 315 365 0
14 109 254 269 304 314 374 0
14 114 254 269 304 319 329 0
13 113 253 268 303 318 343 0
13 113 253 268 303 318 353 0
14 114 254 269 304 319 369 0
15 120 255 270 305 325 335 0
15 120 255 270 305 325 355 0
14 154 254 269 304 329 334 0
13 163 253 268 303 328 343 0
13 253 268 303 328 353 0
14 254 269 304 329 374 0
15 180 255 270 305 335 345 0
15 255 270 305 335 365 0
14 254 269 304 334 369 0
15 255 270 305 345 355 0
13 253 268 303 343 363 0
13 208 253 268 303 353 363 0
15 210 255 270 305 355 365 0
14 249 254 269 304 369 374 0
11 121 131 141 251 266 306 311 321 0
11 121 251 266 306 311 346 0
11 121 251 266 306 311 371 0
12 127 132 147 252 267 307 317 322 0
12 127 252 267 307 317 327 0
13 128 253 268 308 318 338 0
12 127 252 267 307 317 357 0
13 128 253 268 308 318 373 0
11 131 251 266 306 321 336 0
12 132 252 267 307 322 347 0
12 132 252 267 307 322 352 0
11 131 251 266 306 321 361 0
13 158 253 268 308 328 338 0
12 167 252 267 307 327 347 0
12 252 267 307 327 352 0
13 253 268 308 328 373 0
11 191 251 266 306 336 346 0
13 253 268 308 338 363 0
11 251 266 306 336 371 0
12 252 267 307 347 357 0
11 251 266 306 346 361 0
12 202 252 267 307 352 357 0
11 241 251 266 306 361 371 0
13 243 253 268 308 363 373 0
14 139 254 269 314 319 344 0
14 139 254 269 314 319 359 0
11 141 251 266 311 321 331 0
15 145 255 270 315 325 350 0
11 141 251 266 311 321 356 0
15 145 255 270 315 325 370 0
14 179 254 269 314 334 344 0
11 181 251 266 311 331 346 0
14 254 269 314 334 359 0
11 251 266 311 331 371 0
15 200 255 270 315 345 350 0
15 255 270 315 345 370 0
14 254 269 314 344 374 0
11 251 266 311 346 356 0
15 255 270 315 350 365 0
11 231 251 266 311 356 371 0
14 234 254 269 314 359 374 0
15 240 255 270 315 365 370 0
12 147 252 267 317 322 337 0
12 147 252 267 317 322 367 0
12 157 252 267 317 327 337 0
14 164 254 269 319 329 344 0
14 254 269 319 329 359 0
12 252 267 317 327 367 0
13 188 253 268 318 338 343 0
13 253 268 318 338 353 0
12 252 267 317 337 357 0
14 254 269 319 344 369 0
13 253 268 318 343 373 0
13 218 253 268 318 353 373 0
12 227 252 267 317 357 367 0
14 229 254 269 319 359 369 0
11 171 251 266 321 331 336 0
15 185 255 270 325 335 350 0
11 251 266 321 331 361 0
15 255 270 325 335 370 0
12 192 252 267 322 337 347 0
12 252 267 322 337 352 0
11 251 266 321 336 356 0
15 255 270 325 350 355 0
12 252 267 322 347 367 0
12 212 252 267 322 352 367 0
15 215 255 270 325 355 370 0
11 221 251 266 321 356 361 0
14 154 164 179 254 269 329 334 344 0
14 154 254 269 329 334 359 0
13 158 163 188 253 268 328 338 343 0
12 157 167 192 252 267 327 337 347 0
12 157 252 267 327 337 352 0
13 158 253 268 328 338 353 0
13 163 253 268 328 343 373 0
14 164 254 269 329 344 374 0
12 167 252 267 327 347 367 0
12 212 252 267 327 352 367 0
13 218 253 268 328 353 373 0
14 234 254 269 329 359 374 0
11 171 181 191 251 266 331 336 346 0
11 171 251 266 331 336 371 0
15 180 185 200 255 270 335 345 350 0
14 179 254 269 334 344 369 0
15 180 255 270 335 345 370 0
11 181 251 266 331 346 361 0
15 185 255 270 335 350 365 0
14 229 254 269 334 359 369 0
15 240 255 270 335 365 370 0
11 241 251 266 331 361 371 0
13 188 253 268 338 343 363 0
11 191 251 266 336 346 356 0
12 192 252 267 337 347 357 0
12 202 252 267 337 352 357 0
13 208 253 268 338 353 363 0
11 231 251 266 336 356 371 0
15 200 255 270 345 350 355 0
15 215 255 270 345 355 370 0
13 243 253 268 343 363 373 0
14 249 254 269 344 369 374 0
15 210 255 270 350 355 365 0
11 221 251 266 346 356 361 0
12 227 252 267 347 357 367 0
12 202 212 227 252 267 352 357 367 0
15 210 215 240 255 270 355 365 370 0
13 208 218 243 253 268 353 363 373 0
11 221 231 241 251 266 356 361 371 0
14 229 234 249 254 269 359 369 374 0
20 55 60 75 255 275 280 285 290 0
19 54 69 84 254 274 279 284 299 0
20 55 255 275 280 285 310 0
19 54 254 274 279 284 314 0
19 54 254 274 279 284 329 0
20 55 255 275 280 285 330 0
19 54 254 274 279 284 369 0
20 55 255 275 280 285 375 0
20 60 255 275 280 290 305 0
20 60 255 275 280 290 350 0
20 60 255 275 280 290 370 0
18 63 68 98 253 273 278 293 298 0
18 63 253 273 278 293 308 0
18 63 253 273 278 293 343 0
18 63 253 273 278 293 353 0
18 68 253 273 278 298 303 0
19 69 254 274 279 299 324 0
18 68 253 273 278 298 338 0
19 69 254 274 279 299 339 0
19 69 254 274 279 299 354 0
18 68 253 273 278 298 373 0
18 103 253 273 278 303 308 0
20 105 255 275 280 305 310 0
20 255 275 280 305 330 0
18 253 273 278 303 343 0
18 253 273 278 303 353 0
20 255 275 280 305 375 0
18 253 273 278 308 338 0
20 255 275 280 310 350 0
20 255 275 280 310 370 0
18 253 273 278 308 373 0
19 144 254 274 279 314 324 0
19 254 274 279 314 339 0
19 254 274 279 314 354 0
19 254 274 279 324 329 0
19 254 274 279 324 369 0
19 159 254 274 279 329 339 0
20 170 255 275 280 330 350 0
19 254 274 279 329 354 0
20 255 275 280 330 370 0
18 188 253 273 278 338 343 0
18 253 273 278 338 353 0
19 254 274 279 339 369 0
18 253 273 278 343 373 0
20 255 275 280 350 375 0
19 214 254 274 279 354 369 0
18 218 253 273 278 353 373 0
20 250 255 275 280 370 375 0
16 71 76 86 251 271 281 286 291 0
16 71 251 271 281 286 316 0
20 75 255 275 285 290 325 0
16 71 251 271 281 286 341 0
20 75 255 275 285 290 345 0
20 75 255 275 285 290 365 0
16 71 251 271 281 286 366 0
16 76 251 271 281 291 311 0
16 76 251 271 281 291 336 0
16 76 251 271 281 291 361 0
19 84 254 274 284 299 319 0
19 84 254 274 284 299 334 0
19 84 254 274 284 299 374 0
20 135 255 275 285 310 325 0
20 255 275 285 310 345 0
20 255 275 285 310 365 0
16 136 251 271 281 311 316 0
19 139 254 274 284 314 319 0
19 254 274 284 314 334 0
16 251 271 281 311 341 0
16 251 271 281 311 366 0
19 254 274 284 314 374 0
19 254 274 284 319 329 0
16 251 271 281 316 336 0
16 251 271 281 316 361 0
19 254 274 284 319 369 0
20 255 275 285 325 330 0
20 255 275 285 325 375 0
19 154 254 274 284 329 334 0
20 165 255 275 285 330 345 0
20 255 275 285 330 365 0
19 254 274 284 329 374 0
19 254 274 284 334 369 0
16 186 251 271 281 336 341 0
16 251 271 281 336 366 0
16 251 271 281 341 361 0
20 255 275 285 345 375 0
16 236 251 271 281 361 366 0
20 245 255 275 285 365 375 0
19 249 254 274 284 369 374 0
17 87 92 97 252 272 287 292 297 0
17 87 252 272 287 292 302 0
16 86 251 271 286 291 306 0
16 86 251 271 286 291 331 0
17 87 252 272 287 292 332 0
16 86 251 271 286 291 356 0
17 87 252 272 287 292 362 0
17 92 252 272 287 297 322 0
17 92 252 272 287 297 327 0
17 92 252 272 287 297 357 0
17 117 252 272 287 302 322 0
20 120 255 275 290 305 325 0
17 252 272 287 302 327 0
20 255 275 290 305 345 0
17 252 272 287 302 357 0
20 255 275 290 305 365 0
16 126 251 271 286 306 316 0
16 251 271 286 306 341 0
16 251 271 286 306 366 0
16 251 271 286 316 331 0
16 251 271 286 316 356 0
17 252 272 287 322 332 0
20 255 275 290 325 350 0
17 252 272 287 322 362 0
20 255 275 290 325 370 0
17 152 252 272 287 327 332 0
17 252 272 287 327 362 0
16 176 251 271 286 331 341 0
17 252 272 287 332 357 0
16 251 271 286 331 366 0
20 200 255 275 290 345 350 0
16 251 271 286 341 356 0
20 255 275 290 345 370 0
20 255 275 290 350 365 0
17 222 252 272 287 357 362 0
16 226 251 271 286 356 366 0
20 240 255 275 290 365 370 0
18 98 253 273 293 298 313 0
17 97 252 272 292 297 317 0
17 97 252 272 292 297 347 0
18 98 253 273 293 298 348 0
17 97 252 272 292 297 352 0
18 98 253 273 293 298 358 0
17 112 252 272 292 302 317 0
17 252 272 292 302 347 0
17 252 272 292 302 352 0
16 121 251 271 291 306 311 0
18 123 253 273 293 308 313 0
16 251 271 291 306 336 0
18 253 273 293 308 348 0
18 253 273 293 308 358 0
16 251 271 291 306 361 0
16 251 271 291 311 331 0
18 253 273 293 313 343 0
18 253 273 293 313 353 0
16 251 271 291 311 356 0
17 252 272 292 317 332 0
17 252 272 292 317 362 0
16 171 251 271 291 331 336 0
17 182 252 272 292 332 347 0
17 252 272 292 332 352 0
16 251 271 291 331 361 0
16 251 271 291 336 356 0
18 198 253 273 293 343 348 0
18 253 273 293 343 358 0
18 253 273 293 348 353 0
17 252 272 292 347 362 0
18 203 253 273 293 353 358 0
17 207 252 272 292 352 362 0
16 221 251 271 291 356 361 0
18 108 253 273 298 303 313 0
18 253 273 298 303 348 0
18 253 273 298 303 358 0
18 253 273 298 313 338 0
18 253 273 298 313 373 0
17 147 252 272 297 317 322 0
19 149 254 274 299 319 324 0
17 252 272 297 317 327 0
19 254 274 299 319 339 0
19 254 274 299 319 354 0
17 252 272 297 317 357 0
19 254 274 299 324 334 0
17 252 272 297 322 347 0
17 252 272 297 322 352 0
19 254 274 299 324 374 0
17 167 252 272 297 327 347 0
17 252 272 297 327 352 0
19 174 254 274 299 334 339 0
19 254 274 299 334 354 0
18 193 253 273 298 338 348 0
18 253 273 298 338 358 0
19 254 274 299 339 374 0
17 252 272 297 347 357 0
18 253 273 298 348 373 0
17 202 252 272 297 352 357 0
19 219 254 274 299 354 374 0
18 233 253 273 298 358 373 0
18 103 108 123 253 273 303 308 313 0
20 105 120 135 255 275 305 310 325 0
20 105 255 275 305 310 345 0
18 103 253 273 303 308 348 0
18 103 253 273 303 308 358 0
20 105 255 275 305 310 365 0
18 108 253 273 303 313 343 0
18 108 253 273 303 313 353 0
17 112 117 147 252 272 302 317 322 0
17 112 252 272 302 317 327 0
17 112 252 272 302 317 357 0
20 120 255 275 305 325 330 0
17 117 252 272 302 322 347 0
17 117 252 272 302 322 352 0
20 120 255 275 305 325 375 0
20 165 255 275 305 330 345 0
17 167 252 272 302 327 347 0
17 252 272 302 327 352 0
20 255 275 305 330 365 0
18 198 253 273 303 343 348 0
18 253 273 303 343 358 0
20 255 275 305 345 375 0
18 253 273 303 348 353 0
17 252 272 302 347 357 0
17 202 252 272 302 352 357 0
18 203 253 273 303 353 358 0
20 245 255 275 305 365 375 0
16 121 126 136 251 271 306 311 316 0
18 123 253 273 308 313 338 0
16 121 251 271 306 311 341 0
16 121 251 271 306 311 366 0
18 123 253 273 308 313 373 0
16 126 251 271 306 316 336 0
16 126 251 271 306 316 361 0
20 135 255 275 310 325 350 0
20 135 255 275 310 325 370 0
16 186 251 271 306 336 341 0
18 193 253 273 308 338 348 0
18 253 273 308 338 358 0
16 251 271 306 336 366 0
20 200 255 275 310 345 350 0
16 251 271 306 341 361 0
20 255 275 310 345 370 0
20 255 275 310 350 365 0
18 253 273 308 348 373 0
18 233 253 273 308 358 373 0
16 236 251 271 306 361 366 0
20 240 255 275 310 365 370 0
19 139 144 149 254 274 314 319 324 0
16 136 251 271 311 316 331 0
19 139 254 274 314 319 339 0
19 139 254 274 314 319 354 0
16 136 251 271 311 316 356 0
19 144 254 274 314 324 334 0
19 144 254 274 314 324 374 0
19 174 254 274 314 334 339 0
16 176 251 271 311 331 341 0
19 254 274 314 334 354 0
16 251 271 311 331 366 0
18 188 253 273 313 338 343 0
18 253 273 313 338 353 0
19 254 274 314 339 374 0
16 251 271 311 341 356 0
18 253 273 313 343 373 0
18 218 253 273 313 353 373 0
19 219 254 274 314 354 374 0
16 226 251 271 311 356 366 0
19 149 254 274 319 324 329 0
17 147 252 272 317 322 332 0
17 147 252 272 317 322 362 0
19 149 254 274 319 324 369 0
17 152 252 272 317 327 332 0
19 159 254 274 319 329 339 0
19 254 274 319 329 354 0
17 252 272 317 327 362 0
16 171 251 271 316 331 336 0
17 252 272 317 332 357 0
16 251 271 316 331 361 0
16 251 271 316 336 356 0
19 254 274 319 339 369 0
19 214 254 274 319 354 369 0
16 221 251 271 316 356 361 0
17 222 252 272 317 357 362 0
19 154 254 274 324 329 334 0
20 170 255 275 325 330 350 0
20 255 275 325 330 370 0
19 254 274 324 329 374 0
17 182 252 272 322 332 347 0
17 252 272 322 332 352 0
19 254 274 324 334 369 0
17 252 272 322 347 362 0
20 255 275 325 350 375 0
17 207 252 272 322 352 362 0
19 249 254 274 324 369 374 0
20 250 255 275 325 370 375 0
19 154 159 174 254 274 329 334 339 0
17 152 167 182 252 272 327 332 347 0
17 152 252 272 327 332 352 0
19 154 254 274 329 334 354 0
19 159 254 274 329 339 374 0
20 165 170 200 255 275 330 345 350 0
20 165 255 275 330 345 370 0
17 167 252 272 327 347 362 0
20 170 255 275 330 350 365 0
17 207 252 272 327 352 362 0
19 219 254 274 329 354 374 0
20 240 255 275 330 365 370 0
16 171 176 186 251 271 331 336 341 0
16 171 251 271 331 336 366 0
19 174 254 274 334 339 369 0
16 176 251 271 331 341 361 0
17 182 252 272 332 347 357 0
17 202 252 272 332 352 357 0
19 214 254 274 334 354 369 0
16 236 251 271 331 361 366 0
18 188 193 198 253 273 338 343 348 0
16 186 251 271 336 341 356 0
18 188 253 273 338 343 358 0
18 193 253 273 338 348 353 0
18 203 253 273 338 353 358 0
16 226 251 271 336 356 366 0
19 249 254 274 339 369 374 0
18 198 253 273 343 348 373 0
20 200 255 275 345 350 375 0
16 221 251 271 341 356 361 0
18 233 253 273 343 358 373 0
20 250 255 275 345 370 375 0
18 218 253 273 348 353 373 0
17 222 252 272 347 357 362 0
20 245 255 275 350 365 375 0
17 202 207 222 252 272 352 357 362 0
18 203 218 233 253 273 353 358 373 0
19 214 219 249 254 274 354 369 374 0
16 221 226 236 251 271 356 361 366 0
20 240 245 250 255 275 365 370 375 0
55 60 65 75 80 90 255 280 285 290 295 0
54 59 69 74 84 94 254 279 284 289 299 0
54 59 74 254 279 284 289 314 0
55 60 75 255 280 285 290 315 0
54 59 74 254 279 284 289 329 0
55 60 75 255 280 285 290 335 0
55 60 75 255 280 285 290 355 0
54 59 74 254 279 284 289 369 0
53 63 68 78 83 98 253 278 283 293 298 0
53 63 78 253 278 283 293 308 0
55 65 80 255 280 285 295 310 0
55 65 80 255 280 285 295 330 0
53 63 78 253 278 283 293 343 0
53 63 78 253 278 283 293 353 0
55 65 80 255 280 285 295 375 0
53 68 83 253 278 283 298 303 0
54 69 84 254 279 284 299 304 0
53 68 83 253 278 283 298 338 0
54 69 84 254 279 284 299 344 0
54 69 84 254 279 284 299 359 0
53 68 83 253 278 283 298 373 0
53 103 253 278 283 303 308 0
54 109 254 279 284 304 314 0
54 254 279 284 304 329 0
53 253 278 283 303 343 0
53 253 278 283 303 353 0
54 254 279 284 304 369 0
55 125 255 280 285 310 315 0
55 255 280 285 310 335 0
53 253 278 283 308 338 0
55 255 280 285 310 355 0
53 253 278 283 308 373 0
55 255 280 285 315 330 0
54 254 279 284 314 344 0
54 254 279 284 314 359 0
55 255 280 285 315 375 0
55 155 255 280 285 330 335 0
54 164 254 279 284 329 344 0
55 255 280 285 330 355 0
54 254 279 284 329 359 0
55 255 280 285 335 375 0
53 188 253 278 283 338 343 0
53 253 278 283 338 353 0
54 254 279 284 344 369 0
53 253 278 283 343 373 0
53 218 253 278 283 353 373 0
55 220 255 280 285 355 375 0
54 229 254 279 284 359 369 0
57 62 67 87 92 97 252 277 287 292 297 0
57 62 87 252 277 287 292 302 0
60 65 90 255 280 290 295 305 0
57 62 87 252 277 287 292 332 0
60 65 90 255 280 290 295 350 0
57 62 87 252 277 287 292 362 0
60 65 90 255 280 290 295 370 0
57 67 92 252 277 287 297 322 0
59 69 94 254 279 289 299 324 0
57 67 92 252 277 287 297 327 0
59 69 94 254 279 289 299 339 0
59 69 94 254 279 289 299 354 0
57 67 92 252 277 287 297 357 0
60 110 255 280 290 305 315 0
57 117 252 277 287 302 322 0
57 252 277 287 302 327 0
60 255 280 290 305 335 0
60 255 280 290 305 355 0
57 252 277 287 302 357 0
59 144 254 279 289 314 324 0
59 254 279 289 314 339 0
60 255 280 290 315 350 0
59 254 279 289 314 354 0
60 255 280 290 315 370 0
59 254 279 289 324 329 0
57 252 277 287 322 332 0
57 252 277 287 322 362 0
59 254 279 289 324 369 0
57 152 252 277 287 327 332 0
59 159 254 279 289 329 339 0
59 254 279 289 329 354 0
57 252 277 287 327 362 0
60 185 255 280 290 335 350 0
57 252 277 287 332 357 0
60 255 280 290 335 370 0
59 254 279 289 339 369 0
60 255 280 290 350 355 0
59 214 254 279 289 354 369 0
60 215 255 280 290 355 370 0
57 222 252 277 287 357 362 0
62 67 97 252 277 292 297 317 0
63 68 98 253 278 293 298 318 0
63 68 98 253 278 293 298 328 0
62 67 97 252 277 292 297 347 0
62 67 97 252 277 292 297 352 0
63 68 98 253 278 293 298 363 0
65 105 255 280 295 305 310 0
62 112 252 277 292 302 317 0
65 255 280 295 305 330 0
62 252 277 292 302 347 0
62 252 277 292 302 352 0
65 255 280 295 305 375 0
63 128 253 278 293 308 318 0
63 253 278 293 308 328 0
65 255 280 295 310 350 0
63 253 278 293 308 363 0
65 255 280 295 310 370 0
62 252 277 292 317 332 0
63 253 278 293 318 343 0
63 253 278 293 318 353 0
62 252 277 292 317 362 0
63 163 253 278 293 328 343 0
65 170 255 280 295 330 350 0
63 253 278 293 328 353 0
65 255 280 295 330 370 0
62 182 252 277 292 332 347 0
62 252 277 292 332 352 0
63 253 278 293 343 363 0
62 252 277 292 347 362 0
65 255 280 295 350 375 0
62 207 252 277 292 352 362 0
63 208 253 278 293 353 363 0
65 250 255 280 295 370 375 0
68 113 253 278 298 303 318 0
69 119 254 279 299 304 324 0
68 253 278 298 303 328 0
69 254 279 299 304 339 0
69 254 279 299 304 354 0
68 253 278 298 303 363 0
67 147 252 277 297 317 322 0
67 252 277 297 317 327 0
68 253 278 298 318 338 0
67 252 277 297 317 357 0
68 253 278 298 318 373 0
69 254 279 299 324 344 0
67 252 277 297 322 347 0
67 252 277 297 322 352 0
69 254 279 299 324 359 0
68 158 253 278 298 328 338 0
67 167 252 277 297 327 347 0
67 252 277 297 327 352 0
68 253 278 298 328 373 0
69 189 254 279 299 339 344 0
69 254 279 299 339 359 0
68 253 278 298 338 363 0
69 254 279 299 344 354 0
67 252 277 297 347 357 0
67 202 252 277 297 352 357 0
69 204 254 279 299 354 359 0
68 243 253 278 298 363 373 0
105 110 125 255 280 305 310 315 0
103 113 128 253 278 303 308 318 0
103 253 278 303 308 328 0
105 255 280 305 310 335 0
105 255 280 305 310 355 0
103 253 278 303 308 363 0
109 119 144 254 279 304 314 324 0
110 255 280 305 315 330 0
109 254 279 304 314 339 0
109 254 279 304 314 354 0
110 255 280 305 315 375 0
112 117 147 252 277 302 317 322 0
112 252 277 302 317 327 0
113 253 278 303 318 343 0
113 253 278 303 318 353 0
112 252 277 302 317 357 0
119 254 279 304 324 329 0
117 252 277 302 322 347 0
117 252 277 302 322 352 0
119 254 279 304 324 369 0
155 255 280 305 330 335 0
159 254 279 304 329 339 0
163 253 278 303 328 343 0
167 252 277 302 327 347 0
252 277 302 327 352 0
253 278 303 328 353 0
254 279 304 329 354 0
255 280 305 330 355 0
255 280 305 335 375 0
254 279 304 339 369 0
253 278 303 343 363 0
252 277 302 347 357 0
202 252 277 302 352 357 0
208 253 278 303 353 363 0
214 254 279 304 354 369 0
220 255 280 305 355 375 0
125 255 280 310 315 350 0
125 255 280 310 315 370 0
128 253 278 308 318 338 0
128 253 278 308 318 373 0
158 253 278 308 328 338 0
253 278 308 328 373 0
185 255 280 310 335 350 0
255 280 310 335 370 0
253 278 308 338 363 0
255 280 310 350 355 0
215 255 280 310 355 370 0
243 253 278 308 363 373 0
144 254 279 314 324 344 0
144 254 279 314 324 359 0
170 255 280 315 330 350 0
255 280 315 330 370 0
189 254 279 314 339 344 0
254 279 314 339 359 0
254 279 314 344 354 0
255 280 315 350 375 0
204 254 279 314 354 359 0
250 255 280 315 370 375 0
147 252 277 317 322 332 0
147 252 277 317 322 362 0
152 252 277 317 327 332 0
252 277 317 327 362 0
252 277 317 332 357 0
188 253 278 318 338 343 0
253 278 318 338 353 0
253 278 318 343 373 0
218 253 278 318 353 373 0
222 252 277 317 357 362 0
164 254 279 324 329 344 0
254 279 324 329 359 0
182 252 277 322 332 347 0
252 277 322 332 352 0
254 279 324 344 369 0
252 277 322 347 362 0
207 252 277 322 352 362 0
229 254 279 324 359 369 0
152 167 182 252 277 327 332 347 0
155 170 185 255 280 330 335 350 0
152 252 277 327 332 352 0
155 255 280 330 335 370 0
158 163 188 253 278 328 338 343 0
159 164 189 254 279 329 339 344 0
158 253 278 328 338 353 0
159 254 279 329 339 359 0
164 254 279 329 344 354 0
163 253 278 328 343 373 0
170 255 280 330 350 355 0
167 252 277 327 347 362 0
204 254 279 329 354 359 0
207 252 277 327 352 362 0
215 255 280 330 355 370 0
218 253 278 328 353 373 0
182 252 277 332 347 357 0
185 255 280 335 350 375 0
202 252 277 332 352 357 0
250 255 280 335 370 375 0
188 253 278 338 343 363 0
189 254 279 339 344 369 0
208 253 278 338 353 363 0
229 254 279 339 359 369 0
214 254 279 344 354 369 0
243 253 278 343 363 373 0
220 255 280 350 355 375 0
222 252 277 347 357 362 0
202 207 222 252 277 352 357 362 0
204 214 229 254 279 354 359 369 0
208 218 243 253 278 353 363 373 0
215 220 250 255 280 355 370 375 0
71 76 81 86 91 96 251 281 286 291 296 0
71 76 86 251 281 286 291 321 0
75 80 90 255 285 290 295 325 0
75 80 90 255 285 290 295 345 0
71 76 86 251 281 286 291 346 0
75 80 90 255 285 290 295 365 0
71 76 86 251 281 286 291 371 0
71 81 91 251 281 286 296 316 0
74 84 94 254 284 289 299 319 0
74 84 94 254 284 289 299 334 0
71 81 91 251 281 286 296 341 0
71 81 91 251 281 286 296 366 0
74 84 94 254 284 289 299 374 0
74 139 254 284 289 314 319 0
75 145 255 285 290 315 325 0
74 254 284 289 314 334 0
75 255 285 290 315 345 0
75 255 285 290 315 365 0
74 254 284 289 314 374 0
71 146 251 281 286 316 321 0
74 254 284 289 319 329 0
71 251 281 286 316 346 0
74 254 284 289 319 369 0
71 251 281 286 316 371 0
75 255 285 290 325 335 0
71 251 281 286 321 341 0
75 255 285 290 325 355 0
71 251 281 286 321 366 0
74 154 254 284 289 329 334 0
74 254 284 289 329 374 0
75 180 255 285 290 335 345 0
75 255 285 290 335 365 0
74 254 284 289 334 369 0
71 196 251 281 286 341 346 0
75 255 285 290 345 355 0
71 251 281 286 341 371 0
71 251 281 286 346 366 0
75 210 255 285 290 355 365 0
71 246 251 281 286 366 371 0
74 249 254 284 289 369 374 0
76 81 96 251 281 291 296 311 0
78 83 98 253 283 293 298 313 0
76 81 96 251 281 291 296 336 0
78 83 98 253 283 293 298 348 0
78 83 98 253 283 293 298 358 0
76 81 96 251 281 291 296 361 0
78 123 253 283 293 308 313 0
80 135 255 285 295 310 325 0
80 255 285 295 310 345 0
78 253 283 293 308 348 0
78 253 283 293 308 358 0
80 255 285 295 310 365 0
76 141 251 281 291 311 321 0
78 253 283 293 313 343 0
76 251 281 291 311 346 0
78 253 283 293 313 353 0
76 251 281 291 311 371 0
80 255 285 295 325 330 0
76 251 281 291 321 336 0
76 251 281 291 321 361 0
80 255 285 295 325 375 0
80 165 255 285 295 330 345 0
80 255 285 295 330 365 0
76 191 251 281 291 336 346 0
76 251 281 291 336 371 0
78 198 253 283 293 343 348 0
78 253 283 293 343 358 0
80 255 285 295 345 375 0
78 253 283 293 348 353 0
76 251 281 291 346 361 0
78 203 253 283 293 353 358 0
76 241 251 281 291 361 371 0
80 245 255 285 295 365 375 0
83 108 253 283 298 303 313 0
84 114 254 284 299 304 319 0
84 254 284 299 304 334 0
83 253 283 298 303 348 0
83 253 283 298 303 358 0
84 254 284 299 304 374 0
81 136 251 281 296 311 316 0
83 253 283 298 313 338 0
81 251 281 296 311 341 0
81 251 281 296 311 366 0
83 253 283 298 313 373 0
81 251 281 296 316 336 0
84 254 284 299 319 344 0
84 254 284 299 319 359 0
81 251 281 296 316 361 0
84 179 254 284 299 334 344 0
84 254 284 299 334 359 0
81 186 251 281 296 336 341 0
83 193 253 283 298 338 348 0
83 253 283 298 338 358 0
81 251 281 296 336 366 0
81 251 281 296 341 361 0
84 254 284 299 344 374 0
83 253 283 298 348 373 0
83 233 253 283 298 358 373 0
84 234 254 284 299 359 374 0
81 236 251 281 296 361 366 0
103 108 123 253 283 303 308 313 0
103 253 283 303 308 348 0
103 253 283 303 308 358 0
109 114 139 254 284 304 314 319 0
109 254 284 304 314 334 0
108 253 283 303 313 343 0
108 253 283 303 313 353 0
109 254 284 304 314 374 0
114 254 284 304 319 329 0
114 254 284 304 319 369 0
154 254 284 304 329 334 0
254 284 304 329 374 0
254 284 304 334 369 0
198 253 283 303 343 348 0
253 283 303 343 358 0
253 283 303 348 353 0
203 253 283 303 353 358 0
249 254 284 304 369 374 0
125 135 145 255 285 310 315 325 0
123 253 283 308 313 338 0
125 255 285 310 315 345 0
125 255 285 310 315 365 0
123 253 283 308 313 373 0
135 255 285 310 325 335 0
135 255 285 310 325 355 0
180 255 285 310 335 345 0
255 285 310 335 365 0
193 253 283 308 338 348 0
253 283 308 338 358 0
255 285 310 345 355 0
253 283 308 348 373 0
210 255 285 310 355 365 0
233 253 283 308 358 373 0
136 141 146 251 281 311 316 321 0
139 254 284 314 319 344 0
136 251 281 311 316 346 0
139 254 284 314 319 359 0
136 251 281 311 316 371 0
145 255 285 315 325 330 0
141 251 281 311 321 341 0
141 251 281 311 321 366 0
145 255 285 315 325 375 0
165 255 285 315 330 345 0
255 285 315 330 365 0
179 254 284 314 334 344 0
254 284 314 334 359 0
188 253 283 313 338 343 0
253 283 313 338 353 0
196 251 281 311 341 346 0
251 281 311 341 371 0
253 283 313 343 373 0
254 284 314 344 374 0
255 285 315 345 375 0
251 281 311 346 366 0
218 253 283 313 353 373 0
234 254 284 314 359 374 0
245 255 285 315 365 375 0
246 251 281 311 366 371 0
146 251 281 316 321 336 0
146 251 281 316 321 361 0
164 254 284 319 329 344 0
254 284 319 329 359 0
191 251 281 316 336 346 0
251 281 316 336 371 0
254 284 319 344 369 0
251 281 316 346 361 0
229 254 284 319 359 369 0
241 251 281 316 361 371 0
155 255 285 325 330 335 0
255 285 325 330 355 0
255 285 325 335 375 0
186 251 281 321 336 341 0
251 281 321 336 366 0
251 281 321 341 361 0
220 255 285 325 355 375 0
236 251 281 321 361 366 0
154 164 179 254 284 329 334 344 0
155 165 180 255 285 330 335 345 0
154 254 284 329 334 359 0
155 255 285 330 335 365 0
165 255 285 330 345 355 0
164 254 284 329 344 374 0
210 255 285 330 355 365 0
234 254 284 329 359 374 0
179 254 284 334 344 369 0
180 255 285 335 345 375 0
229 254 284 334 359 369 0
245 255 285 335 365 375 0
186 191 196 251 281 336 341 346 0
188 193 198 253 283 338 343 348 0
188 253 283 338 343 358 0
186 251 281 336 341 371 0
193 253 283 338 348 353 0
191 251 281 336 346 366 0
203 253 283 338 353 358 0
246 251 281 336 366 371 0
196 251 281 341 346 361 0
198 253 283 343 348 373 0
220 255 285 345 355 375 0
233 253 283 343 358 373 0
241 251 281 341 361 371 0
249 254 284 344 369 374 0
218 253 283 348 353 373 0
236 251 281 346 361 366 0
203 218 233 253 283 353 358 373 0
210 220 245 255 285 355 365 375 0
229 234 249 254 284 359 369 374 0
236 241 246 251 281 361 366 371 0
86 91 96 251 286 291 296 306 0
87 92 97 252 287 292 297 307 0
86 91 96 251 286 291 296 331 0
87 92 97 252 287 292 297 337 0
86 91 96 251 286 291 296 356 0
87 92 97 252 287 292 297 367 0
87 102 252 287 292 302 307 0
90 120 255 290 295 305 325 0
87 252 287 292 302 337 0
90 255 290 295 305 345 0
90 255 290 295 305 365 0
87 252 287 292 302 367 0
86 131 251 286 291 306 321 0
87 252 287 292 307 332 0
86 251 286 291 306 346 0
87 252 287 292 307 362 0
86 251 286 291 306 371 0
86 251 286 291 321 331 0
90 255 290 295 325 350 0
86 251 286 291 321 356 0
90 255 290 295 325 370 0
87 172 252 287 292 332 337 0
86 181 251 286 291 331 346 0
87 252 287 292 332 367 0
86 251 286 291 331 371 0
87 252 287 292 337 362 0
90 200 255 290 295 345 350 0
90 255 290 295 345 370 0
86 251 286 291 346 356 0
90 255 290 295 350 365 0
86 231 251 286 291 356 371 0
87 237 252 287 292 362 367 0
90 240 255 290 295 365 370 0
91 126 251 286 296 306 316 0
92 132 252 287 297 307 322 0
92 252 287 297 307 327 0
91 251 286 296 306 341 0
92 252 287 297 307 357 0
91 251 286 296 306 366 0
94 149 254 289 299 319 324 0
91 251 286 296 316 331 0
94 254 289 299 319 339 0
94 254 289 299 319 354 0
91 251 286 296 316 356 0
94 254 289 299 324 334 0
92 252 287 297 322 337 0
92 252 287 297 322 367 0
94 254 289 299 324 374 0
92 157 252 287 297 327 337 0
92 252 287 297 327 367 0
94 174 254 289 299 334 339 0
91 176 251 286 296 331 341 0
94 254 289 299 334 354 0
91 251 286 296 331 366 0
92 252 287 297 337 357 0
94 254 289 299 339 374 0
91 251 286 296 341 356 0
94 219 254 289 299 354 374 0
91 226 251 286 296 356 366 0
92 227 252 287 297 357 367 0
102 117 132 252 287 302 307 322 0
102 252 287 302 307 327 0
102 252 287 302 307 357 0
110 120 145 255 290 305 315 325 0
110 255 290 305 315 345 0
110 255 290 305 315 365 0
120 255 290 305 325 335 0
117 252 287 302 322 337 0
120 255 290 305 325 355 0
117 252 287 302 322 367 0
157 252 287 302 327 337 0
252 287 302 327 367 0
180 255 290 305 335 345 0
255 290 305 335 365 0
252 287 302 337 357 0
255 290 305 345 355 0
210 255 290 305 355 365 0
227 252 287 302 357 367 0
126 131 146 251 286 306 316 321 0
126 251 286 306 316 346 0
126 251 286 306 316 371 0
132 252 287 307 322 332 0
131 251 286 306 321 341 0
132 252 287 307 322 362 0
131 251 286 306 321 366 0
152 252 287 307 327 332 0
252 287 307 327 362 0
252 287 307 332 357 0
196 251 286 306 341 346 0
251 286 306 341 371 0
251 286 306 346 366 0
222 252 287 307 357 362 0
246 251 286 306 366 371 0
139 144 149 254 289 314 319 324 0
139 254 289 314 319 339 0
139 254 289 314 319 354 0
144 254 289 314 324 334 0
145 255 290 315 325 350 0
145 255 290 315 325 370 0
144 254 289 314 324 374 0
174 254 289 314 334 339 0
254 289 314 334 354 0
254 289 314 339 374 0
200 255 290 315 345 350 0
255 290 315 345 370 0
255 290 315 350 365 0
219 254 289 314 354 374 0
240 255 290 315 365 370 0
149 254 289 319 324 329 0
146 251 286 316 321 331 0
146 251 286 316 321 356 0
149 254 289 319 324 369 0
159 254 289 319 329 339 0
254 289 319 329 354 0
181 251 286 316 331 346 0
251 286 316 331 371 0
254 289 319 339 369 0
251 286 316 346 356 0
214 254 289 319 354 369 0
231 251 286 316 356 371 0
154 254 289 324 329 334 0
254 289 324 329 374 0
172 252 287 322 332 337 0
176 251 286 321 331 341 0
185 255 290 325 335 350 0
251 286 321 331 366 0
252 287 322 332 367 0
254 289 324 334 369 0
255 290 325 335 370 0
252 287 322 337 362 0
251 286 321 341 356 0
255 290 325 350 355 0
215 255 290 325 355 370 0
226 251 286 321 356 366 0
237 252 287 322 362 367 0
249 254 289 324 369 374 0
152 157 172 252 287 327 332 337 0
154 159 174 254 289 329 334 339 0
154 254 289 329 334 354 0
152 252 287 327 332 367 0
157 252 287 327 337 362 0
159 254 289 329 339 374 0
219 254 289 329 354 374 0
237 252 287 327 362 367 0
172 252 287 332 337 357 0
174 254 289 334 339 369 0
176 181 196 251 286 331 341 346 0
180 185 200 255 290 335 345 350 0
180 255 290 335 345 370 0
176 251 286 331 341 371 0
185 255 290 335 350 365 0
181 251 286 331 346 366 0
214 254 289 334 354 369 0
227 252 287 332 357 367 0
240 255 290 335 365 370 0
246 251 286 331 366 371 0
222 252 287 337 357 362 0
249 254 289 339 369 374 0
200 255 290 345 350 355 0
196 251 286 341 346 356 0
215 255 290 345 355 370 0
231 251 286 341 356 371 0
210 255 290 350 355 365 0
226 251 286 346 356 366 0
210 215 240 255 290 355 365 370 0
214 219 249 254 289 354 369 374 0
222 227 237 252 287 357 362 367 0
226 231 246 251 286 356 366 371 0
96 121 251 291 296 306 311 0
97 127 252 292 297 307 317 0
96 251 291 296 306 336 0
97 252 292 297 307 347 0
97 252 292 297 307 352 0
96 251 291 296 306 361 0
98 138 253 293 298 313 318 0
98 253 293 298 313 328 0
96 251 291 296 311 331 0
96 251 291 296 311 356 0
98 253 293 298 313 363 0
97 252 292 297 317 337 0
98 253 293 298 318 348 0
98 253 293 298 318 358 0
97 252 292 297 317 367 0
98 168 253 293 298 328 348 0
98 253 293 298 328 358 0
96 171 251 291 296 331 336 0
96 251 291 296 331 361 0
97 192 252 292 297 337 347 0
97 252 292 297 337 352 0
96 251 291 296 336 356 0
98 253 293 298 348 363 0
97 252 292 297 347 367 0
97 212 252 292 297 352 367 0
96 221 251 291 296 356 361 0
98 223 253 293 298 358 363 0
102 112 127 252 292 302 307 317 0
105 120 135 255 295 305 310 325 0
105 255 295 305 310 345 0
102 252 292 302 307 347 0
102 252 292 302 307 352 0
105 255 295 305 310 365 0
112 252 292 302 317 337 0
112 252 292 302 317 367 0
120 255 295 305 325 330 0
120 255 295 305 325 375 0
165 255 295 305 330 345 0
255 295 305 330 365 0
192 252 292 302 337 347 0
252 292 302 337 352 0
255 295 305 345 375 0
252 292 302 347 367 0
212 252 292 302 352 367 0
245 255 295 305 365 375 0
123 128 138 253 293 308 313 318 0
121 131 141 251 291 306 311 321 0
123 253 293 308 313 328 0
121 251 291 306 311 346 0
123 253 293 308 313 363 0
121 251 291 306 311 371 0
127 252 292 307 317 332 0
128 253 293 308 318 348 0
128 253 293 308 318 358 0
127 252 292 307 317 362 0
131 251 291 306 321 336 0
135 255 295 310 325 350 0
131 251 291 306 321 361 0
135 255 295 310 325 370 0
168 253 293 308 328 348 0
253 293 308 328 358 0
182 252 292 307 332 347 0
252 292 307 332 352 0
191 251 291 306 336 346 0
251 291 306 336 371 0
200 255 295 310 345 350 0
255 295 310 345 370 0
251 291 306 346 361 0
252 292 307 347 362 0
253 293 308 348 363 0
255 295 310 350 365 0
207 252 292 307 352 362 0
223 253 293 308 358 363 0
240 255 295 310 365 370 0
241 251 291 306 361 371 0
138 253 293 313 318 343 0
138 253 293 313 318 353 0
141 251 291 311 321 331 0
141 251 291 311 321 356 0
163 253 293 313 328 343 0
253 293 313 328 353 0
181 251 291 311 331 346 0
251 291 311 331 371 0
253 293 313 343 363 0
251 291 311 346 356 0
208 253 293 313 353 363 0
231 251 291 311 356 371 0
172 252 292 317 332 337 0
252 292 317 332 367 0
252 292 317 337 362 0
198 253 293 318 343 348 0
253 293 318 343 358 0
253 293 318 348 353 0
203 253 293 318 353 358 0
237 252 292 317 362 367 0
170 255 295 325 330 350 0
255 295 325 330 370 0
171 251 291 321 331 336 0
251 291 321 331 361 0
251 291 321 336 356 0
255 295 325 350 375 0
221 251 291 321 356 361 0
250 255 295 325 370 375 0
163 168 198 253 293 328 343 348 0
165 170 200 255 295 330 345 350 0
163 253 293 328 343 358 0
165 255 295 330 345 370 0
168 253 293 328 348 353 0
170 255 295 330 350 365 0
203 253 293 328 353 358 0
240 255 295 330 365 370 0
171 181 191 251 291 331 336 346 0
172 182 192 252 292 332 337 347 0
172 252 292 332 337 352 0
171 251 291 331 336 371 0
181 251 291 331 346 361 0
182 252 292 332 347 367 0
212 252 292 332 352 367 0
241 251 291 331 361 371 0
191 251 291 336 346 356 0
192 252 292 337 347 362 0
207 252 292 337 352 362 0
231 251 291 336 356 371 0
198 253 293 343 348 363 0
200 255 295 345 350 375 0
223 253 293 343 358 363 0
250 255 295 345 370 375 0
208 253 293 348 353 363 0
221 251 291 346 356 361 0
237 252 292 347 362 367 0
245 255 295 350 365 375 0
203 208 223 253 293 353 358 363 0
207 212 237 252 292 352 362 367 0
221 231 241 251 291 356 361 371 0
240 245 250 255 295 365 370 375 0
108 113 138 253 298 303 313 318 0
108 253 298 303 313 328 0
108 253 298 303 313 363 0
114 119 149 254 299 304 319 324 0
114 254 299 304 319 339 0
113 253 298 303 318 348 0
114 254 299 304 319 354 0
113 253 298 303 318 358 0
119 254 299 304 324 334 0
119 254 299 304 324 374 0
168 253 298 303 328 348 0
253 298 303 328 358 0
174 254 299 304 334 339 0
254 299 304 334 354 0
254 299 304 339 374 0
253 298 303 348 363 0
219 254 299 304 354 374 0
223 253 298 303 358 363 0
121 126 136 251 296 306 311 316 0
121 251 296 306 311 341 0
121 251 296 306 311 366 0
127 132 147 252 297 307 317 322 0
127 252 297 307 317 327 0
126 251 296 306 316 336 0
127 252 297 307 317 357 0
126 251 296 306 316 361 0
132 252 297 307 322 347 0
132 252 297 307 322 352 0
167 252 297 307 327 347 0
252 297 307 327 352 0
186 251 296 306 336 341 0
251 296 306 336 366 0
251 296 306 341 361 0
252 297 307 347 357 0
202 252 297 307 352 357 0
236 251 296 306 361 366 0
136 251 296 311 316 331 0
138 253 298 313 318 338 0
136 251 296 311 316 356 0
138 253 298 313 318 373 0
158 253 298 313 328 338 0
253 298 313 328 373 0
176 251 296 311 331 341 0
251 296 311 331 366 0
253 298 313 338 363 0
251 296 311 341 356 0
226 251 296 311 356 366 0
243 253 298 313 363 373 0
147 252 297 317 322 337 0
149 254 299 319 324 344 0
149 254 299 319 324 359 0
147 252 297 317 322 367 0
157 252 297 317 327 337 0
252 297 317 327 367 0
171 251 296 316 331 336 0
251 296 316 331 361 0
189 254 299 319 339 344 0
193 253 298 318 338 348 0
251 296 316 336 356 0
252 297 317 337 357 0
253 298 318 338 358 0
254 299 319 339 359 0
254 299 319 344 354 0
253 298 318 348 373 0
204 254 299 319 354 359 0
221 251 296 316 356 361 0
227 252 297 317 357 367 0
233 253 298 318 358 373 0
179 254 299 324 334 344 0
254 299 324 334 359 0
192 252 297 322 337 347 0
252 297 322 337 352 0
254 299 324 344 374 0
252 297 322 347 367 0
212 252 297 322 352 367 0
234 254 299 324 359 374 0
157 167 192 252 297 327 337 347 0
158 168 193 253 298 328 338 348 0
157 252 297 327 337 352 0
158 253 298 328 338 358 0
167 252 297 327 347 367 0
168 253 298 328 348 373 0
212 252 297 327 352 367 0
233 253 298 328 358 373 0
171 176 186 251 296 331 336 341 0
174 179 189 254 299 334 339 344 0
174 254 299 334 339 359 0
171 251 296 331 336 366 0
179 254 299 334 344 354 0
176 251 296 331 341 361 0
204 254 299 334 354 359 0
236 251 296 331 361 366 0
186 251 296 336 341 356 0
189 254 299 339 344 374 0
192 252 297 337 347 357 0
193 253 298 338 348 363 0
202 252 297 337 352 357 0
223 253 298 338 358 363 0
226 251 296 336 356 366 0
234 254 299 339 359 374 0
219 254 299 344 354 374 0
221 251 296 341 356 361 0
227 252 297 347 357 367 0
243 253 298 348 363 373 0
202 212 227 252 297 352 357 367 0
204 219 234 254 299 354 359 374 0
221 226 236 251 296 356 361 366 0
223 233 243 253 298 358 363 373 0
103 108 113 123 128 138 253 303 308 313 318 0
105 110 120 125 135 145 255 305 310 315 325 0
103 108 123 253 303 308 313 328 0
105 110 125 255 305 310 315 345 0
103 108 123 253 303 308 313 363 0
105 110 125 255 305 310 315 365 0
102 112 117 127 132 147 252 302 307 317 322 0
102 112 127 252 302 307 317 327 0
103 113 128 253 303 308 318 348 0
102 112 127 252 302 307 317 357 0
103 113 128 253 303 308 318 358 0
105 120 135 255 305 310 325 335 0
102 117 132 252 302 307 322 347 0
102 117 132 252 302 307 322 352 0
105 120 135 255 305 310 325 355 0
102 167 252 302 307 327 347 0
103 168 253 303 308 328 348 0
102 252 302 307 327 352 0
103 253 303 308 328 358 0
105 180 255 305 310 335 345 0
105 255 305 310 335 365 0
105 255 305 310 345 355 0
102 252 302 307 347 357 0
103 253 303 308 348 363 0
102 202 252 302 307 352 357 0
105 210 255 305 310 355 365 0
103 223 253 303 308 358 363 0
109 114 119 139 144 149 254 304 314 319 324 0
109 114 139 254 304 314 319 339 0
108 113 138 253 303 313 318 343 0
108 113 138 253 303 313 318 353 0
109 114 139 254 304 314 319 354 0
110 120 145 255 305 315 325 330 0
109 119 144 254 304 314 324 334 0
109 119 144 254 304 314 324 374 0
110 120 145 255 305 315 325 375 0
108 163 253 303 313 328 343 0
110 165 255 305 315 330 345 0
108 253 303 313 328 353 0
110 255 305 315 330 365 0
109 174 254 304 314 334 339 0
109 254 304 314 334 354 0
109 254 304 314 339 374 0
108 253 303 313 343 363 0
110 255 305 315 345 375 0
108 208 253 303 313 353 363 0
109 219 254 304 314 354 374 0
110 245 255 305 315 365 375 0
114 119 149 254 304 319 324 329 0
112 117 147 252 302 317 322 337 0
112 117 147 252 302 317 322 367 0
114 119 149 254 304 319 324 369 0
112 157 252 302 317 327 337 0
114 159 254 304 319 329 339 0
114 254 304 319 329 354 0
112 252 302 317 327 367 0
112 252 302 317 337 357 0
114 254 304 319 339 369 0
113 198 253 303 318 343 348 0
113 253 303 318 343 358 0
113 253 303 318 348 353 0
113 203 253 303 318 353 358 0
114 214 254 304 319 354 369 0
112 227 252 302 317 357 367 0
119 154 254 304 324 329 334 0
120 155 255 305 325 330 335 0
120 255 305 325 330 355 0
119 254 304 324 329 374 0
119 254 304 324 334 369 0
120 255 305 325 335 375 0
117 192 252 302 322 337 347 0
117 252 302 322 337 352 0
117 252 302 322 347 367 0
117 212 252 302 322 352 367 0
120 220 255 305 325 355 375 0
119 249 254 304 324 369 374 0
154 159 174 254 304 329 334 339 0
155 165 180 255 305 330 335 345 0
154 254 304 329 334 354 0
155 255 305 330 335 365 0
157 167 192 252 302 327 337 347 0
157 252 302 327 337 352 0
159 254 304 329 339 374 0
163 168 198 253 303 328 343 348 0
165 255 305 330 345 355 0
163 253 303 328 343 358 0
168 253 303 328 348 353 0
167 252 302 327 347 367 0
203 253 303 328 353 358 0
210 255 305 330 355 365 0
212 252 302 327 352 367 0
219 254 304 329 354 374 0
174 254 304 334 339 369 0
180 255 305 335 345 375 0
214 254 304 334 354 369 0
245 255 305 335 365 375 0
192 252 302 337 347 357 0
202 252 302 337 352 357 0
249 254 304 339 369 374 0
198 253 303 343 348 363 0
220 255 305 345 355 375 0
223 253 303 343 358 363 0
208 253 303 348 353 363 0
227 252 302 347 357 367 0
203 208 223 253 303 353 358 363 0
202 212 227 252 302 352 357 367 0
210 220 245 255 305 355 365 375 0
214 219 249 254 304 354 369 374 0
121 126 131 136 141 146 251 306 311 316 321 0
123 128 138 253 308 313 318 338 0
121 126 136 251 306 311 316 346 0
121 126 136 251 306 311 316 371 0
123 128 138 253 308 313 318 373 0
121 131 141 251 306 311 321 341 0
125 135 145 255 310 315 325 350 0
121 131 141 251 306 311 321 366 0
125 135 145 255 310 315 325 370 0
123 158 253 308 313 328 338 0
123 253 308 313 328 373 0
123 253 308 313 338 363 0
121 196 251 306 311 341 346 0
125 200 255 310 315 345 350 0
125 255 310 315 345 370 0
121 251 306 311 341 371 0
125 255 310 315 350 365 0
121 251 306 311 346 366 0
125 240 255 310 315 365 370 0
123 243 253 308 313 363 373 0
121 246 251 306 311 366 371 0
127 132 147 252 307 317 322 332 0
126 131 146 251 306 316 321 336 0
126 131 146 251 306 316 321 361 0
127 132 147 252 307 317 322 362 0
127 152 252 307 317 327 332 0
127 252 307 317 327 362 0
127 252 307 317 332 357 0
126 191 251 306 316 336 346 0
128 193 253 308 318 338 348 0
128 253 308 318 338 358 0
126 251 306 316 336 371 0
126 251 306 316 346 361 0
128 253 308 318 348 373 0
127 222 252 307 317 357 362 0
128 233 253 308 318 358 373 0
126 241 251 306 316 361 371 0
132 182 252 307 322 332 347 0
135 185 255 310 325 335 350 0
132 252 307 322 332 352 0
135 255 310 325 335 370 0
131 186 251 306 321 336 341 0
131 251 306 321 336 366 0
131 251 306 321 341 361 0
135 255 310 325 350 355 0
132 252 307 322 347 362 0
132 207 252 307 322 352 362 0
135 215 255 310 325 355 370 0
131 236 251 306 321 361 366 0
152 167 182 252 307 327 332 347 0
152 252 307 327 332 352 0
158 168 193 253 308 328 338 348 0
158 253 308 328 338 358 0
167 252 307 327 347 362 0
168 253 308 328 348 373 0
207 252 307 327 352 362 0
233 253 308 328 358 373 0
180 185 200 255 310 335 345 350 0
180 255 310 335 345 370 0
182 252 307 332 347 357 0
185 255 310 335 350 365 0
202 252 307 332 352 357 0
240 255 310 335 365 370 0
186 191 196 251 306 336 341 346 0
186 251 306 336 341 371 0
193 253 308 338 348 363 0
191 251 306 336 346 366 0
223 253 308 338 358 363 0
246 251 306 336 366 371 0
200 255 310 345 350 355 0
196 251 306 341 346 361 0
215 255 310 345 355 370 0
241 251 306 341 361 371 0
210 255 310 350 355 365 0
222 252 307 347 357 362 0
236 251 306 346 361 366 0
243 253 308 348 363 373 0
202 207 222 252 307 352 357 362 0
210 215 240 255 310 355 365 370 0
223 233 243 253 308 358 363 373 0
236 241 246 251 306 361 366 371 0
136 141 146 251 311 316 321 331 0
139 144 149 254 314 319 324 344 0
136 141 146 251 311 316 321 356 0
139 144 149 254 314 319 324 359 0
136 181 251 311 316 331 346 0
136 251 311 316 331 371 0
138 188 253 313 318 338 343 0
139 189 254 314 319 339 344 0
138 253 313 318 338 353 0
139 254 314 319 339 359 0
139 254 314 319 344 354 0
138 253 313 318 343 373 0
136 251 311 316 346 356 0
139 204 254 314 319 354 359 0
138 218 253 313 318 353 373 0
136 231 251 311 316 356 371 0
145 170 255 315 325 330 350 0
145 255 315 325 330 370 0
141 176 251 311 321 331 341 0
144 179 254 314 324 334 344 0
144 254 314 324 334 359 0
141 251 311 321 331 366 0
141 251 311 321 341 356 0
144 254 314 324 344 374 0
145 255 315 325 350 375 0
141 226 251 311 321 356 366 0
144 234 254 314 324 359 374 0
145 250 255 315 325 370 375 0
158 163 188 253 313 328 338 343 0
158 253 313 328 338 353 0
165 170 200 255 315 330 345 350 0
165 255 315 330 345 370 0
163 253 313 328 343 373 0
170 255 315 330 350 365 0
218 253 313 328 353 373 0
240 255 315 330 365 370 0
174 179 189 254 314 334 339 344 0
174 254 314 334 339 359 0
176 181 196 251 311 331 341 346 0
179 254 314 334 344 354 0
176 251 311 331 341 371 0
181 251 311 331 346 366 0
204 254 314 334 354 359 0
246 251 311 331 366 371 0
188 253 313 338 343 363 0
189 254 314 339 344 374 0
208 253 313 338 353 363 0
234 254 314 339 359 374 0
196 251 311 341 346 356 0
200 255 315 345 350 375 0
219 254 314 344 354 374 0
231 251 311 341 356 371 0
243 253 313 343 363 373 0
250 255 315 345 370 375 0
226 251 311 346 356 366 0
245 255 315 350 365 375 0
204 219 234 254 314 354 359 374 0
208 218 243 253 313 353 363 373 0
226 231 246 251 311 356 366 371 0
240 245 250 255 315 365 370 375 0
149 164 254 319 324 329 344 0
149 254 319 324 329 359 0
146 171 251 316 321 331 336 0
147 172 252 317 322 332 337 0
146 251 316 321 331 361 0
147 252 317 322 332 367 0
146 251 316 321 336 356 0
147 252 317 322 337 362 0
149 254 319 324 344 369 0
146 221 251 316 321 356 361 0
149 229 254 319 324 359 369 0
147 237 252 317 322 362 367 0
152 157 172 252 317 327 332 337 0
152 252 317 327 332 367 0
159 164 189 254 319 329 339 344 0
159 254 319 329 339 359 0
157 252 317 327 337 362 0
164 254 319 329 344 354 0
204 254 319 329 354 359 0
237 252 317 327 362 367 0
171 181 191 251 316 331 336 346 0
172 252 317 332 337 357 0
171 251 316 331 336 371 0
181 251 316 331 346 361 0
227 252 317 332 357 367 0
241 251 316 331 361 371 0
188 193 198 253 318 338 343 348 0
188 253 318 338 343 358 0
189 254 319 339 344 369 0
193 253 318 338 348 353 0
191 251 316 336 346 356 0
203 253 318 338 353 358 0
222 252 317 337 357 362 0
229 254 319 339 359 369 0
231 251 316 336 356 371 0
198 253 318 343 348 373 0
214 254 319 344 354 369 0
233 253 318 343 358 373 0
218 253 318 348 353 373 0
221 251 316 346 356 361 0
204 214 229 254 319 354 359 369 0
203 218 233 253 318 353 358 373 0
222 227 237 252 317 357 362 367 0
221 231 241 251 316 356 361 371 0
154 164 179 254 324 329 334 344 0
155 170 185 255 325 330 335 350 0
154 254 324 329 334 359 0
155 255 325 330 335 370 0
164 254 324 329 344 374 0
170 255 325 330 350 355 0
215 255 325 330 355 370 0
234 254 324 329 359 374 0
171 176 186 251 321 331 336 341 0
172 182 192 252 322 332 337 347 0
172 252 322 332 337 352 0
171 251 321 331 336 366 0
176 251 321 331 341 361 0
179 254 324 334 344 369 0
182 252 322 332 347 367 0
185 255 325 335 350 375 0
212 252 322 332 352 367 0
229 254 324 334 359 369 0
236 251 321 331 361 366 0
250 255 325 335 370 375 0
186 251 321 336 341 356 0
192 252 322 337 347 362 0
207 252 322 337 352 362 0
226 251 321 336 356 366 0
221 251 321 341 356 361 0
249 254 324 344 369 374 0
220 255 325 350 355 375 0
237 252 322 347 362 367 0
207 212 237 252 322 352 362 367 0
215 220 250 255 325 355 370 375 0
221 226 236 251 321 356 361 366 0
229 234 249 254 324 359 369 374 0
154 159 164 174 179 189 254 329 334 339 344 0
152 157 167 172 182 192 252 327 332 337 347 0
152 157 172 252 327 332 337 352 0
154 159 174 254 329 334 339 359 0
155 165 170 180 185 200 255 330 335 345 350 0
154 164 179 254 329 334 344 354 0
155 165 180 255 330 335 345 370 0
155 170 185 255 330 335 350 365 0
152 167 182 252 327 332 347 367 0
154 204 254 329 334 354 359 0
152 212 252 327 332 352 367 0
155 240 255 330 335 365 370 0
158 163 168 188 193 198 253 328 338 343 348 0
158 163 188 253 328 338 343 358 0
159 164 189 254 329 339 344 374 0
158 168 193 253 328 338 348 353 0
157 167 192 252 327 337 347 362 0
158 203 253 328 338 353 358 0
157 207 252 327 337 352 362 0
159 234 254 329 339 359 374 0
165 170 200 255 330 345 350 355 0
163 168 198 253 328 343 348 373 0
165 215 255 330 345 355 370 0
164 219 254 329 344 354 374 0
163 233 253 328 343 358 373 0
170 210 255 330 350 355 365 0
168 218 253 328 348 353 373 0
167 237 252 327 347 362 367 0
203 218 233 253 328 353 358 373 0
204 219 234 254 329 354 359 374 0
207 212 237 252 327 352 362 367 0
210 215 240 255 330 355 365 370 0
171 176 181 186 191 196 251 331 336 341 346 0
174 179 189 254 334 339 344 369 0
171 176 186 251 331 336 341 371 0
172 182 192 252 332 337 347 357 0
171 181 191 251 331 336 346 366 0
172 202 252 332 337 352 357 0
174 229 254 334 339 359 369 0
171 246 251 331 336 366 371 0
176 181 196 251 331 341 346 361 0
180 185 200 255 335 345 350 375 0
179 214 254 334 344 354 369 0
176 241 251 331 341 361 371 0
180 250 255 335 345 370 375 0
182 227 252 332 347 357 367 0
181 236 251 331 346 361 366 0
185 245 255 335 350 365 375 0
202 212 227 252 332 352 357 367 0
204 214 229 254 334 354 359 369 0
236 241 246 251 331 361 366 371 0
240 245 250 255 335 365 370 375 0
186 191 196 251 336 341 346 356 0
188 193 198 253 338 343 348 363 0
188 223 253 338 343 358 363 0
186 231 251 336 341 356 371 0
189 249 254 339 344 369 374 0
193 208 253 338 348 353 363 0
192 222 252 337 347 357 362 0
191 226 251 336 346 356 366 0
202 207 222 252 337 352 357 362 0
203 208 223 253 338 353 358 363 0
226 231 246 251 336 356 366 371 0
229 234 249 254 339 359 369 374 0
200 220 255 345 350 355 375 0
196 221 251 341 346 356 361 0
198 243 253 343 348 363 373 0
214 219 249 254 344 354 369 374 0
215 220 250 255 345 355 370 375 0
221 231 241 251 341 356 361 371 0
223 233 243 253 343 358 363 373 0
208 218 243 253 348 353 363 373 0
210 220 245 255 350 355 365 375 0
221 226 236 251 346 356 361 366 0
222 227 237 252 347 357 362 367 0
202 207 212 222 227 237 252 352 357 362 367 0
203 208 218 223 233 243 253 353 358 363 373 0
204 214 219 229 234 249 254 354 359 369 374 0
210 215 220 240 245 250 255 355 365 370 375 0
221 226 231 236 241 246 251 356 361 366 371 0
21 26 31 36 41 46 256 261 266 271 276 0
22 27 32 37 42 47 257 262 267 272 282 0
23 28 33 38 43 48 258 263 268 273 288 0
24 29 34 39 44 49 259 264 269 274 294 0
25 30 35 40 45 50 260 265 270 275 300 0
21 26 31 36 41 46 256 261 266 271 301 0
24 29 34 39 44 49 259 264 269 274 309 0
22 27 32 37 42 47 257 262 267 272 312 0
25 30 35 40 45 50 260 265 270 275 320 0
23 28 33 38 43 48 258 263 268 273 323 0
21 26 31 36 41 46 256 261 266 271 326 0
23 28 33 38 43 48 258 263 268 273 333 0
25 30 35 40 45 50 260 265 270 275 340 0
22 27 32 37 42 47 257 262 267 272 342 0
24 29 34 39 44 49 259 264 269 274 349 0
21 26 31 36 41 46 256 261 266 271 351 0
25 30 35 40 45 50 260 265 270 275 360 0
24 29 34 39 44 49 259 264 269 274 364 0
23 28 33 38 43 48 258 263 268 273 368 0
22 27 32 37 42 47 257 262 267 272 372 0
22 27 37 52 257 262 267 277 282 0
21 26 36 66 256 261 266 276 296 0
22 27 37 257 262 267 277 312 0
21 26 36 256 261 266 276 321 0
22 27 37 257 262 267 277 342 0
21 26 36 256 261 266 276 346 0
21 26 36 256 261 266 276 371 0
22 27 37 257 262 267 277 372 0
23 28 38 73 258 263 268 283 288 0
22 27 37 257 262 267 282 307 0
23 28 38 258 263 268 283 323 0
23 28 38 258 263 268 283 333 0
22 27 37 257 262 267 282 337 0
22 27 37 257 262 267 282 367 0
23 28 38 258 263 268 283 368 0
24 29 39 89 259 264 269 289 294 0
24 29 39 259 264 269 289 309 0
23 28 38 258 263 268 288 318 0
23 28 38 258 263 268 288 328 0
24 29 39 259 264 269 289 349 0
23 28 38 258 263 268 288 363 0
24 29 39 259 264 269 289 364 0
25 30 40 100 260 265 270 295 300 0
24 29 39 259 264 269 294 304 0
25 30 40 260 265 270 295 320 0
25 30 40 260 265 270 295 340 0
24 29 39 259 264 269 294 344 0
24 29 39 259 264 269 294 359 0
25 30 40 260 265 270 295 360 0
21 26 36 256 261 266 296 301 0
25 30 40 260 265 270 300 315 0
21 26 36 256 261 266 296 326 0
25 30 40 260 265 270 300 335 0
21 26 36 256 261 266 296 351 0
25 30 40 260 265 270 300 355 0
24 29 39 104 259 264 269 304 309 0
21 26 36 116 256 261 266 301 321 0
21 26 36 256 261 266 301 346 0
24 29 39 259 264 269 304 349 0
24 29 39 259 264 269 304 364 0
21 26 36 256 261 266 301 371 0
22 27 37 122 257 262 267 307 312 0
22 27 37 257 262 267 307 342 0
24 29 39 259 264 269 309 344 0
24 29 39 259 264 269 309 359 0
22 27 37 257 262 267 307 372 0
25 30 40 140 260 265 270 315 320 0
22 27 37 257 262 267 312 337 0
25 30 40 260 265 270 315 340 0
25 30 40 260 265 270 315 360 0
22 27 37 257 262 267 312 367 0
23 28 38 148 258 263 268 318 323 0
23 28 38 258 263 268 318 333 0
25 30 40 260 265 270 320 335 0
25 30 40 260 265 270 320 355 0
23 28 38 258 263 268 318 368 0
21 26 36 256 261 266 321 326 0
23 28 38 258 263 268 323 328 0
21 26 36 256 261 266 321 351 0
23 28 38 258 263 268 323 363 0
23 28 38 153 258 263 268 328 333 0
21 26 36 166 256 261 266 326 346 0
23 28 38 258 263 268 328 368 0
21 26 36 256 261 266 326 371 0
25 30 40 175 260 265 270 335 340 0
25 30 40 260 265 270 335 360 0
23 28 38 258 263 268 333 363 0
22 27 37 187 257 262 267 337 342 0
25 30 40 260 265 270 340 355 0
22 27 37 257 262 267 337 372 0
24 29 39 199 259 264 269 344 349 0
24 29 39 259 264 269 344 364 0
22 27 37 257 262 267 342 367 0
21 26 36 256 261 266 346 351 0
24 29 39 259 264 269 349 359 0
25 30 40 205 260 265 270 355 360 0
21 26 36 216 256 261 266 351 371 0
24 29 39 224 259 264 269 359 364 0
23 28 38 238 258 263 268 363 368 0
22 27 37 247 257 262 267 367 372 0
23 33 43 58 258 263 273 278 288 0
21 31 41 61 256 261 271 276 291 0
21 31 41 256 261 271 276 316 0
23 33 43 258 263 273 278 323 0
23 33 43 258 263 273 278 333 0
21 31 41 256 261 271 276 341 0
21 31 41 256 261 271 276 366 0
23 33 43 258 263 273 278 368 0
24 34 44 79 259 264 274 284 294 0
22 32 42 82 257 262 272 282 297 0
22 32 42 257 262 272 282 302 0
24 34 44 259 264 274 284 309 0
22 32 42 257 262 272 282 332 0
24 34 44 259 264 274 284 349 0
22 32 42 257 262 272 282 362 0
24 34 44 259 264 274 284 364 0
25 35 45 95 260 265 275 290 300 0
23 33 43 258 263 273 288 313 0
25 35 45 260 265 275 290 320 0
25 35 45 260 265 275 290 340 0
23 33 43 258 263 273 288 348 0
23 33 43 258 263 273 288 358 0
25 35 45 260 265 275 290 360 0
21 31 41 256 261 271 291 301 0
24 34 44 259 264 274 294 324 0
21 31 41 256 261 271 291 326 0
24 34 44 259 264 274 294 339 0
21 31 41 256 261 271 291 351 0
24 34 44 259 264 274 294 354 0
25 35 45 260 265 275 300 310 0
22 32 42 257 262 272 297 312 0
25 35 45 260 265 275 300 330 0
22 32 42 257 262 272 297 342 0
22 32 42 257 262 272 297 372 0
25 35 45 260 265 275 300 375 0
22 32 42 107 257 262 272 302 312 0
21 31 41 111 256 261 271 301 316 0
21 31 41 256 261 271 301 341 0
22 32 42 257 262 272 302 342 0
21 31 41 256 261 271 301 366 0
22 32 42 257 262 272 302 372 0
25 35 45 130 260 265 275 310 320 0
24 34 44 134 259 264 274 309 324 0
24 34 44 259 264 274 309 339 0
25 35 45 260 265 275 310 340 0
24 34 44 259 264 274 309 354 0
25 35 45 260 265 275 310 360 0
23 33 43 143 258 263 273 313 323 0
22 32 42 257 262 272 312 332 0
23 33 43 258 263 273 313 333 0
22 32 42 257 262 272 312 362 0
23 33 43 258 263 273 313 368 0
21 31 41 256 261 271 316 326 0
25 35 45 260 265 275 320 330 0
21 31 41 256 261 271 316 351 0
25 35 45 260 265 275 320 375 0
23 33 43 258 263 273 323 348 0
24 34 44 259 264 274 324 349 0
23 33 43 258 263 273 323 358 0
24 34 44 259 264 274 324 364 0
25 35 45 160 260 265 275 330 340 0
21 31 41 161 256 261 271 326 341 0
25 35 45 260 265 275 330 360 0
21 31 41 256 261 271 326 366 0
22 32 42 177 257 262 272 332 342 0
23 33 43 183 258 263 273 333 348 0
23 33 43 258 263 273 333 358 0
22 32 42 257 262 272 332 372 0
24 34 44 194 259 264 274 339 349 0
24 34 44 259 264 274 339 364 0
25 35 45 260 265 275 340 375 0
21 31 41 256 261 271 341 351 0
22 32 42 257 262 272 342 362 0
24 34 44 259 264 274 349 354 0
23 33 43 258 263 273 348 368 0
24 34 44 209 259 264 274 354 364 0
21 31 41 211 256 261 271 351 366 0
23 33 43 228 258 263 273 358 368 0
25 35 45 235 260 265 275 360 375 0
22 32 42 242 257 262 272 362 372 0
23 53 58 73 258 263 278 283 288 0
22 52 67 82 257 262 277 282 297 0
22 52 257 262 277 282 302 0
23 53 258 263 278 283 323 0
22 52 257 262 277 282 332 0
23 53 258 263 278 283 333 0
22 52 257 262 277 282 362 0
23 53 258 263 278 283 368 0
23 58 258 263 278 288 318 0
23 58 258 263 278 288 328 0
23 58 258 263 278 288 363 0
21 61 66 96 256 261 276 291 296 0
21 61 256 261 276 291 321 0
21 61 256 261 276 291 346 0
21 61 256 261 276 291 371 0
22 67 257 262 277 297 312 0
21 66 256 261 276 296 316 0
21 66 256 261 276 296 341 0
22 67 257 262 277 297 342 0
21 66 256 261 276 296 366 0
22 67 257 262 277 297 372 0
22 107 257 262 277 302 312 0
22 257 262 277 302 342 0
22 257 262 277 302 372 0
22 257 262 277 312 332 0
22 257 262 277 312 362 0
21 146 256 261 276 316 321 0
23 148 258 263 278 318 323 0
23 258 263 278 318 333 0
21 256 261 276 316 346 0
23 258 263 278 318 368 0
21 256 261 276 316 371 0
23 258 263 278 323 328 0
21 256 261 276 321 341 0
23 258 263 278 323 363 0
21 256 261 276 321 366 0
23 153 258 263 278 328 333 0
23 258 263 278 328 368 0
22 177 257 262 277 332 342 0
23 258 263 278 333 363 0
22 257 262 277 332 372 0
21 196 256 261 276 341 346 0
22 257 262 277 342 362 0
21 256 261 276 341 371 0
21 256 261 276 346 366 0
23 238 258 263 278 363 368 0
22 242 257 262 277 362 372 0
21 246 256 261 276 366 371 0
24 74 79 89 259 264 284 289 294 0
24 74 259 264 284 289 309 0
23 73 258 263 283 288 313 0
23 73 258 263 283 288 348 0
24 74 259 264 284 289 349 0
23 73 258 263 283 288 358 0
24 74 259 264 284 289 364 0
24 79 259 264 284 294 304 0
24 79 259 264 284 294 344 0
24 79 259 264 284 294 359 0
22 82 257 262 282 297 307 0
22 82 257 262 282 297 337 0
22 82 257 262 282 297 367 0
22 102 257 262 282 302 307 0
24 104 259 264 284 304 309 0
22 257 262 282 302 337 0
24 259 264 284 304 349 0
24 259 264 284 304 364 0
22 257 262 282 302 367 0
22 257 262 282 307 332 0
24 259 264 284 309 344 0
24 259 264 284 309 359 0
22 257 262 282 307 362 0
23 143 258 263 283 313 323 0
23 258 263 283 313 333 0
23 258 263 283 313 368 0
23 258 263 283 323 348 0
23 258 263 283 323 358 0
22 172 257 262 282 332 337 0
23 183 258 263 283 333 348 0
23 258 263 283 333 358 0
22 257 262 282 332 367 0
22 257 262 282 337 362 0
24 199 259 264 284 344 349 0
24 259 264 284 344 364 0
24 259 264 284 349 359 0
23 258 263 283 348 368 0
24 224 259 264 284 359 364 0
23 228 258 263 283 358 368 0
22 237 257 262 282 362 367 0
25 90 95 100 260 265 290 295 300 0
25 90 260 265 290 295 320 0
24 89 259 264 289 294 324 0
24 89 259 264 289 294 339 0
25 90 260 265 290 295 340 0
24 89 259 264 289 294 354 0
25 90 260 265 290 295 360 0
25 95 260 265 290 300 315 0
25 95 260 265 290 300 335 0
25 95 260 265 290 300 355 0
24 134 259 264 289 309 324 0
24 259 264 289 309 339 0
24 259 264 289 309 354 0
23 138 258 263 288 313 318 0
25 140 260 265 290 315 320 0
23 258 263 288 313 328 0
25 260 265 290 315 340 0
25 260 265 290 315 360 0
23 258 263 288 313 363 0
25 260 265 290 320 335 0
23 258 263 288 318 348 0
25 260 265 290 320 355 0
23 258 263 288 318 358 0
24 259 264 289 324 349 0
24 259 264 289 324 364 0
23 168 258 263 288 328 348 0
23 258 263 288 328 358 0
25 175 260 265 290 335 340 0
25 260 265 290 335 360 0
24 194 259 264 289 339 349 0
25 260 265 290 340 355 0
24 259 264 289 339 364 0
24 259 264 289 349 354 0
23 258 263 288 348 363 0
25 205 260 265 290 355 360 0
24 209 259 264 289 354 364 0
23 223 258 263 288 358 363 0
21 96 256 261 291 296 301 0
25 100 260 265 295 300 310 0
21 96 256 261 291 296 326 0
25 100 260 265 295 300 330 0
21 96 256 261 291 296 351 0
25 100 260 265 295 300 375 0
21 116 256 261 291 301 321 0
24 119 259 264 294 304 324 0
24 259 264 294 304 339 0
21 256 261 291 301 346 0
24 259 264 294 304 354 0
21 256 261 291 301 371 0
25 130 260 265 295 310 320 0
25 260 265 295 310 340 0
25 260 265 295 310 360 0
25 260 265 295 320 330 0
25 260 265 295 320 375 0
21 256 261 291 321 326 0
24 259 264 294 324 344 0
21 256 261 291 321 351 0
24 259 264 294 324 359 0
25 160 260 265 295 330 340 0
21 166 256 261 291 326 346 0
25 260 265 295 330 360 0
21 256 261 291 326 371 0
24 189 259 264 294 339 344 0
24 259 264 294 339 359 0
25 260 265 295 340 375 0
24 259 264 294 344 354 0
21 256 261 291 346 351 0
24 204 259 264 294 354 359 0
21 216 256 261 291 351 371 0
25 235 260 265 295 360 375 0
21 111 256 261 296 301 316 0
21 256 261 296 301 341 0
21 256 261 296 301 366 0
22 122 257 262 297 307 312 0
25 125 260 265 300 310 315 0
25 260 265 300 310 335 0
22 257 262 297 307 342 0
25 260 265 300 310 355 0
22 257 262 297 307 372 0
25 260 265 300 315 330 0
22 257 262 297 312 337 0
22 257 262 297 312 367 0
25 260 265 300 315 375 0
21 256 261 296 316 326 0
21 256 261 296 316 351 0
25 155 260 265 300 330 335 0
21 161 256 261 296 326 341 0
25 260 265 300 330 355 0
21 256 261 296 326 366 0
25 260 265 300 335 375 0
22 187 257 262 297 337 342 0
22 257 262 297 337 372 0
21 256 261 296 341 351 0
22 257 262 297 342 367 0
21 211 256 261 296 351 366 0
25 220 260 265 300 355 375 0
22 247 257 262 297 367 372 0
22 102 107 122 257 262 302 307 312 0
24 104 119 134 259 264 304 309 324 0
24 104 259 264 304 309 339 0
22 102 257 262 302 307 342 0
24 104 259 264 304 309 354 0
22 102 257 262 302 307 372 0
22 107 257 262 302 312 337 0
22 107 257 262 302 312 367 0
21 111 116 146 256 261 301 316 321 0
21 111 256 261 301 316 346 0
21 111 256 261 301 316 371 0
21 116 256 261 301 321 341 0
24 119 259 264 304 324 349 0
24 119 259 264 304 324 364 0
21 116 256 261 301 321 366 0
22 187 257 262 302 337 342 0
24 194 259 264 304 339 349 0
24 259 264 304 339 364 0
22 257 262 302 337 372 0
21 196 256 261 301 341 346 0
22 257 262 302 342 367 0
21 256 261 301 341 371 0
24 259 264 304 349 354 0
21 256 261 301 346 366 0
24 209 259 264 304 354 364 0
21 246 256 261 301 366 371 0
22 247 257 262 302 367 372 0
25 125 130 140 260 265 310 315 320 0
22 122 257 262 307 312 332 0
25 125 260 265 310 315 340 0
25 125 260 265 310 315 360 0
22 122 257 262 307 312 362 0
25 130 260 265 310 320 335 0
25 130 260 265 310 320 355 0
24 134 259 264 309 324 344 0
24 134 259 264 309 324 359 0
25 175 260 265 310 335 340 0
22 177 257 262 307 332 342 0
25 260 265 310 335 360 0
22 257 262 307 332 372 0
24 189 259 264 309 339 344 0
25 260 265 310 340 355 0
24 259 264 309 339 359 0
24 259 264 309 344 354 0
22 257 262 307 342 362 0
24 204 259 264 309 354 359 0
25 205 260 265 310 355 360 0
22 242 257 262 307 362 372 0
23 138 143 148 258 263 313 318 323 0
25 140 260 265 315 320 330 0
23 138 258 263 313 318 333 0
23 138 258 263 313 318 368 0
25 140 260 265 315 320 375 0
23 143 258 263 313 323 328 0
23 143 258 263 313 323 363 0
23 153 258 263 313 328 333 0
25 160 260 265 315 330 340 0
25 260 265 315 330 360 0
23 258 263 313 328 368 0
22 172 257 262 312 332 337 0
23 258 263 313 333 363 0
22 257 262 312 332 367 0
22 257 262 312 337 362 0
25 260 265 315 340 375 0
25 235 260 265 315 360 375 0
22 237 257 262 312 362 367 0
23 238 258 263 313 363 368 0
21 146 256 261 316 321 326 0
23 148 258 263 318 323 348 0
21 146 256 261 316 321 351 0
23 148 258 263 318 323 358 0
25 155 260 265 320 330 335 0
21 166 256 261 316 326 346 0
25 260 265 320 330 355 0
21 256 261 316 326 371 0
23 183 258 263 318 333 348 0
23 258 263 318 333 358 0
25 260 265 320 335 375 0
21 256 261 316 346 351 0
23 258 263 318 348 368 0
21 216 256 261 316 351 371 0
25 220 260 265 320 355 375 0
23 228 258 263 318 358 368 0
21 161 256 261 321 326 341 0
23 168 258 263 323 328 348 0
23 258 263 323 328 358 0
21 256 261 321 326 366 0
24 199 259 264 324 344 349 0
21 256 261 321 341 351 0
24 259 264 324 344 364 0
24 259 264 324 349 359 0
23 258 263 323 348 363 0
21 211 256 261 321 351 366 0
23 223 258 263 323 358 363 0
24 224 259 264 324 359 364 0
25 155 160 175 260 265 330 335 340 0
23 153 168 183 258 263 328 333 348 0
23 153 258 263 328 333 358 0
25 155 260 265 330 335 360 0
25 160 260 265 330 340 355 0
21 161 166 196 256 261 326 341 346 0
21 161 256 261 326 341 371 0
21 166 256 261 326 346 366 0
23 168 258 263 328 348 368 0
25 205 260 265 330 355 360 0
23 228 258 263 328 358 368 0
21 246 256 261 326 366 371 0
22 172 177 187 257 262 332 337 342 0
22 172 257 262 332 337 372 0
25 175 260 265 335 340 375 0
22 177 257 262 332 342 367 0
23 183 258 263 333 348 363 0
23 223 258 263 333 358 363 0
25 235 260 265 335 360 375 0
22 247 257 262 332 367 372 0
24 189 194 199 259 264 339 344 349 0
22 187 257 262 337 342 362 0
24 189 259 264 339 344 364 0
24 194 259 264 339 349 359 0
25 220 260 265 340 355 375 0
24 224 259 264 339 359 364 0
22 242 257 262 337 362 372 0
21 196 256 261 341 346 351 0
24 199 259 264 344 349 354 0
24 209 259 264 344 354 364 0
21 216 256 261 341 351 371 0
22 237 257 262 342 362 367 0
24 204 259 264 349 354 359 0
21 211 256 261 346 351 366 0
23 238 258 263 348 363 368 0
24 204 209 224 259 264 354 359 364 0
25 205 220 235 260 265 355 360 375 0
21 211 216 246 256 261 351 366 371 0
23 223 228 238 258 263 358 363 368 0
22 237 242 247 257 262 362 367 372 0
26 31 46 56 256 266 271 276 286 0
29 34 49 64 259 269 274 279 294 0
29 34 49 259 269 274 279 309 0
26 31 46 256 266 271 276 311 0
26 31 46 256 266 271 276 336 0
29 34 49 259 269 274 279 349 0
26 31 46 256 266 271 276 361 0
29 34 49 259 269 274 279 364 0
27 32 47 77 257 267 272 282 292 0
30 35 50 85 260 270 275 285 300 0
30 35 50 260 270 275 285 320 0
27 32 47 257 267 272 282 322 0
27 32 47 257 267 272 282 327 0
30 35 50 260 270 275 285 340 0
27 32 47 257 267 272 282 357 0
30 35 50 260 270 275 285 360 0
28 33 48 93 258 268 273 288 298 0
26 31 46 256 266 271 286 301 0
28 33 48 258 268 273 288 308 0
26 31 46 256 266 271 286 326 0
28 33 48 258 268 273 288 343 0
26 31 46 256 266 271 286 351 0
28 33 48 258 268 273 288 353 0
27 32 47 257 267 272 292 312 0
29 34 49 259 269 274 294 319 0
29 34 49 259 269 274 294 334 0
27 32 47 257 267 272 292 342 0
27 32 47 257 267 272 292 372 0
29 34 49 259 269 274 294 374 0
30 35 50 260 270 275 300 305 0
28 33 48 258 268 273 298 323 0
28 33 48 258 268 273 298 333 0
30 35 50 260 270 275 300 350 0
28 33 48 258 268 273 298 368 0
30 35 50 260 270 275 300 370 0
26 31 46 106 256 266 271 301 311 0
30 35 50 115 260 270 275 305 320 0
26 31 46 256 266 271 301 336 0
30 35 50 260 270 275 305 340 0
30 35 50 260 270 275 305 360 0
26 31 46 256 266 271 301 361 0
29 34 49 129 259 269 274 309 319 0
28 33 48 133 258 268 273 308 323 0
28 33 48 258 268 273 308 333 0
29 34 49 259 269 274 309 334 0
28 33 48 258 268 273 308 368 0
29 34 49 259 269 274 309 374 0
27 32 47 142 257 267 272 312 322 0
26 31 46 256 266 271 311 326 0
27 32 47 257 267 272 312 327 0
26 31 46 256 266 271 311 351 0
27 32 47 257 267 272 312 357 0
29 34 49 259 269 274 319 349 0
30 35 50 260 270 275 320 350 0
29 34 49 259 269 274 319 364 0
30 35 50 260 270 275 320 370 0
27 32 47 257 267 272 322 342 0
28 33 48 258 268 273 323 343 0
28 33 48 258 268 273 323 353 0
27 32 47 257 267 272 322 372 0
26 31 46 156 256 266 271 326 336 0
27 32 47 162 257 267 272 327 342 0
26 31 46 256 266 271 326 361 0
27 32 47 257 267 272 327 372 0
28 33 48 178 258 268 273 333 343 0
29 34 49 184 259 269 274 334 349 0
28 33 48 258 268 273 333 353 0
29 34 49 259 269 274 334 364 0
30 35 50 195 260 270 275 340 350 0
26 31 46 256 266 271 336 351 0
30 35 50 260 270 275 340 370 0
27 32 47 257 267 272 342 357 0
28 33 48 258 268 273 343 368 0
30 35 50 260 270 275 350 360 0
29 34 49 259 269 274 349 374 0
26 31 46 206 256 266 271 351 361 0
28 33 48 213 258 268 273 353 368 0
30 35 50 230 260 270 275 360 370 0
27 32 47 232 257 267 272 357 372 0
29 34 49 244 259 269 274 364 374 0
27 52 62 77 257 267 277 282 292 0
27 52 257 267 277 282 322 0
27 52 257 267 277 282 327 0
27 52 257 267 277 282 357 0
29 59 64 89 259 269 279 289 294 0
26 56 66 91 256 266 276 286 296 0
29 59 259 269 279 289 309 0
26 56 256 266 276 286 321 0
26 56 256 266 276 286 346 0
29 59 259 269 279 289 349 0
29 59 259 269 279 289 364 0
26 56 256 266 276 286 371 0
29 64 259 269 279 294 304 0
27 62 257 267 277 292 312 0
27 62 257 267 277 292 342 0
29 64 259 269 279 294 344 0
29 64 259 269 279 294 359 0
27 62 257 267 277 292 372 0
26 66 256 266 276 296 311 0
26 66 256 266 276 296 336 0
26 66 256 266 276 296 361 0
29 104 259 269 279 304 309 0
29 259 269 279 304 349 0
29 259 269 279 304 364 0
29 259 269 279 309 344 0
29 259 269 279 309 359 0
26 141 256 266 276 311 321 0
27 142 257 267 277 312 322 0
27 257 267 277 312 327 0
26 256 266 276 311 346 0
27 257 267 277 312 357 0
26 256 266 276 311 371 0
26 256 266 276 321 336 0
27 257 267 277 322 342 0
26 256 266 276 321 361 0
27 257 267 277 322 372 0
27 162 257 267 277 327 342 0
27 257 267 277 327 372 0
26 191 256 266 276 336 346 0
26 256 266 276 336 371 0
29 199 259 269 279 344 349 0
27 257 267 277 342 357 0
29 259 269 279 344 364 0
29 259 269 279 349 359 0
26 256 266 276 346 361 0
29 224 259 269 279 359 364 0
27 232 257 267 277 357 372 0
26 241 256 266 276 361 371 0
28 73 83 93 258 268 283 288 298 0
28 73 258 268 283 288 308 0
28 73 258 268 283 288 343 0
28 73 258 268 283 288 353 0
30 80 85 100 260 270 285 295 300 0
27 77 257 267 282 292 307 0
30 80 260 270 285 295 320 0
27 77 257 267 282 292 337 0
30 80 260 270 285 295 340 0
30 80 260 270 285 295 360 0
27 77 257 267 282 292 367 0
30 85 260 270 285 300 315 0
28 83 258 268 283 298 323 0
28 83 258 268 283 298 333 0
30 85 260 270 285 300 335 0
30 85 260 270 285 300 355 0
28 83 258 268 283 298 368 0
27 132 257 267 282 307 322 0
28 133 258 268 283 308 323 0
27 257 267 282 307 327 0
28 258 268 283 308 333 0
27 257 267 282 307 357 0
28 258 268 283 308 368 0
30 140 260 270 285 315 320 0
30 260 270 285 315 340 0
30 260 270 285 315 360 0
30 260 270 285 320 335 0
30 260 270 285 320 355 0
27 257 267 282 322 337 0
28 258 268 283 323 343 0
28 258 268 283 323 353 0
27 257 267 282 322 367 0
27 157 257 267 282 327 337 0
27 257 267 282 327 367 0
30 175 260 270 285 335 340 0
28 178 258 268 283 333 343 0
28 258 268 283 333 353 0
30 260 270 285 335 360 0
30 260 270 285 340 355 0
27 257 267 282 337 357 0
28 258 268 283 343 368 0
30 205 260 270 285 355 360 0
28 213 258 268 283 353 368 0
27 227 257 267 282 357 367 0
29 89 259 269 289 294 319 0
29 89 259 269 289 294 334 0
29 89 259 269 289 294 374 0
26 91 256 266 286 296 301 0
28 93 258 268 288 298 318 0
26 91 256 266 286 296 326 0
28 93 258 268 288 298 328 0
26 91 256 266 286 296 351 0
28 93 258 268 288 298 363 0
26 116 256 266 286 301 321 0
26 256 266 286 301 346 0
26 256 266 286 301 371 0
28 128 258 268 288 308 318 0
29 129 259 269 289 309 319 0
28 258 268 288 308 328 0
29 259 269 289 309 334 0
28 258 268 288 308 363 0
29 259 269 289 309 374 0
28 258 268 288 318 343 0
29 259 269 289 319 349 0
28 258 268 288 318 353 0
29 259 269 289 319 364 0
26 256 266 286 321 326 0
26 256 266 286 321 351 0
28 163 258 268 288 328 343 0
26 166 256 266 286 326 346 0
28 258 268 288 328 353 0
26 256 266 286 326 371 0
29 184 259 269 289 334 349 0
29 259 269 289 334 364 0
28 258 268 288 343 363 0
26 256 266 286 346 351 0
29 259 269 289 349 374 0
28 208 258 268 288 353 363 0
26 216 256 266 286 351 371 0
29 244 259 269 289 364 374 0
30 100 260 270 295 300 305 0
30 100 260 270 295 300 350 0
30 100 260 270 295 300 370 0
29 114 259 269 294 304 319 0
30 115 260 270 295 305 320 0
29 259 269 294 304 334 0
30 260 270 295 305 340 0
30 260 270 295 305 360 0
29 259 269 294 304 374 0
27 122 257 267 292 307 312 0
27 257 267 292 307 342 0
27 257 267 292 307 372 0
27 257 267 292 312 337 0
27 257 267 292 312 367 0
29 259 269 294 319 344 0
30 260 270 295 320 350 0
29 259 269 294 319 359 0
30 260 270 295 320 370 0
29 179 259 269 294 334 344 0
29 259 269 294 334 359 0
27 187 257 267 292 337 342 0
30 195 260 270 295 340 350 0
30 260 270 295 340 370 0
27 257 267 292 337 372 0
27 257 267 292 342 367 0
29 259 269 294 344 374 0
30 260 270 295 350 360 0
30 230 260 270 295 360 370 0
29 234 259 269 294 359 374 0
27 247 257 267 292 367 372 0
26 106 256 266 296 301 311 0
30 110 260 270 300 305 315 0
30 260 270 300 305 335 0
26 256 266 296 301 336 0
30 260 270 300 305 355 0
26 256 266 296 301 361 0
26 256 266 296 311 326 0
30 260 270 300 315 350 0
26 256 266 296 311 351 0
30 260 270 300 315 370 0
28 148 258 268 298 318 323 0
28 258 268 298 318 333 0
28 258 268 298 318 368 0
28 258 268 298 323 328 0
28 258 268 298 323 363 0
28 153 258 268 298 328 333 0
26 156 256 266 296 326 336 0
26 256 266 296 326 361 0
28 258 268 298 328 368 0
30 185 260 270 300 335 350 0
28 258 268 298 333 363 0
30 260 270 300 335 370 0
26 256 266 296 336 351 0
30 260 270 300 350 355 0
26 206 256 266 296 351 361 0
30 215 260 270 300 355 370 0
28 238 258 268 298 363 368 0
29 104 114 129 259 269 304 309 319 0
29 104 259 269 304 309 334 0
29 104 259 269 304 309 374 0
30 110 115 140 260 270 305 315 320 0
26 106 116 141 256 266 301 311 321 0
30 110 260 270 305 315 340 0
26 106 256 266 301 311 346 0
30 110 260 270 305 315 360 0
26 106 256 266 301 311 371 0
30 115 260 270 305 320 335 0
29 114 259 269 304 319 349 0
30 115 260 270 305 320 355 0
29 114 259 269 304 319 364 0
26 116 256 266 301 321 336 0
26 116 256 266 301 321 361 0
30 175 260 270 305 335 340 0
29 184 259 269 304 334 349 0
30 260 270 305 335 360 0
29 259 269 304 334 364 0
26 191 256 266 301 336 346 0
30 260 270 305 340 355 0
26 256 266 301 336 371 0
26 256 266 301 346 361 0
29 259 269 304 349 374 0
30 205 260 270 305 355 360 0
26 241 256 266 301 361 371 0
29 244 259 269 304 364 374 0
27 122 132 142 257 267 307 312 322 0
27 122 257 267 307 312 327 0
27 122 257 267 307 312 357 0
28 128 133 148 258 268 308 318 323 0
28 128 258 268 308 318 333 0
29 129 259 269 309 319 344 0
29 129 259 269 309 319 359 0
28 128 258 268 308 318 368 0
28 133 258 268 308 323 328 0
27 132 257 267 307 322 342 0
28 133 258 268 308 323 363 0
27 132 257 267 307 322 372 0
28 153 258 268 308 328 333 0
27 162 257 267 307 327 342 0
28 258 268 308 328 368 0
27 257 267 307 327 372 0
29 179 259 269 309 334 344 0
29 259 269 309 334 359 0
28 258 268 308 333 363 0
27 257 267 307 342 357 0
29 259 269 309 344 374 0
27 232 257 267 307 357 372 0
29 234 259 269 309 359 374 0
28 238 258 268 308 363 368 0
30 140 260 270 315 320 350 0
30 140 260 270 315 320 370 0
26 141 256 266 311 321 326 0
27 142 257 267 312 322 337 0
26 141 256 266 311 321 351 0
27 142 257 267 312 322 367 0
27 157 257 267 312 327 337 0
26 166 256 266 311 326 346 0
27 257 267 312 327 367 0
26 256 266 311 326 371 0
30 195 260 270 315 340 350 0
27 257 267 312 337 357 0
30 260 270 315 340 370 0
26 256 266 311 346 351 0
30 260 270 315 350 360 0
26 216 256 266 311 351 371 0
27 227 257 267 312 357 367 0
30 230 260 270 315 360 370 0
28 148 258 268 318 323 343 0
28 148 258 268 318 323 353 0
28 178 258 268 318 333 343 0
30 185 260 270 320 335 350 0
28 258 268 318 333 353 0
30 260 270 320 335 370 0
29 199 259 269 319 344 349 0
29 259 269 319 344 364 0
28 258 268 318 343 368 0
30 260 270 320 350 355 0
29 259 269 319 349 359 0
28 213 258 268 318 353 368 0
30 215 260 270 320 355 370 0
29 224 259 269 319 359 364 0
26 156 256 266 321 326 336 0
28 163 258 268 323 328 343 0
28 258 268 323 328 353 0
26 256 266 321 326 361 0
27 187 257 267 322 337 342 0
26 256 266 321 336 351 0
27 257 267 322 337 372 0
28 258 268 323 343 363 0
27 257 267 322 342 367 0
26 206 256 266 321 351 361 0
28 208 258 268 323 353 363 0
27 247 257 267 322 367 372 0
28 153 163 178 258 268 328 333 343 0
28 153 258 268 328 333 353 0
27 157 162 187 257 267 327 337 342 0
26 156 166 191 256 266 326 336 346 0
26 156 256 266 326 336 371 0
27 157 257 267 327 337 372 0
27 162 257 267 327 342 367 0
28 163 258 268 328 343 368 0
26 166 256 266 326 346 361 0
28 213 258 268 328 353 368 0
26 241 256 266 326 361 371 0
27 247 257 267 327 367 372 0
30 175 185 195 260 270 335 340 350 0
30 175 260 270 335 340 370 0
29 179 184 199 259 269 334 344 349 0
28 178 258 268 333 343 363 0
29 179 259 269 334 344 364 0
29 184 259 269 334 349 359 0
30 185 260 270 335 350 360 0
28 208 258 268 333 353 363 0
29 224 259 269 334 359 364 0
30 230 260 270 335 360 370 0
27 187 257 267 337 342 357 0
26 191 256 266 336 346 351 0
30 195 260 270 340 350 355 0
30 215 260 270 340 355 370 0
26 216 256 266 336 351 371 0
27 232 257 267 337 357 372 0
29 199 259 269 344 349 374 0
27 227 257 267 342 357 367 0
28 238 258 268 343 363 368 0
29 244 259 269 344 364 374 0
30 205 260 270 350 355 360 0
26 206 256 266 346 351 361 0
29 234 259 269 349 359 374 0
30 205 215 230 260 270 355 360 370 0
28 208 213 238 258 268 353 363 368 0
26 206 216 241 256 266 351 361 371 0
29 224 234 244 259 269 359 364 374 0
27 227 232 247 257 267 357 367 372 0
34 54 64 79 259 274 279 284 294 0
34 54 259 274 279 284 309 0
34 54 259 274 279 284 349 0
34 54 259 274 279 284 364 0
31 56 61 86 256 271 276 286 291 0
33 58 68 93 258 273 278 288 298 0
33 58 258 273 278 288 308 0
31 56 256 271 276 286 316 0
31 56 256 271 276 286 341 0
33 58 258 273 278 288 343 0
33 58 258 273 278 288 353 0
31 56 256 271 276 286 366 0
31 61 256 271 276 291 311 0
34 64 259 274 279 294 324 0
31 61 256 271 276 291 336 0
34 64 259 274 279 294 339 0
34 64 259 274 279 294 354 0
31 61 256 271 276 291 361 0
33 68 258 273 278 298 323 0
33 68 258 273 278 298 333 0
33 68 258 273 278 298 368 0
33 133 258 273 278 308 323 0
34 134 259 274 279 309 324 0
33 258 273 278 308 333 0
34 259 274 279 309 339 0
34 259 274 279 309 354 0
33 258 273 278 308 368 0
31 136 256 271 276 311 316 0
31 256 271 276 311 341 0
31 256 271 276 311 366 0
31 256 271 276 316 336 0
31 256 271 276 316 361 0
33 258 273 278 323 343 0
34 259 274 279 324 349 0
33 258 273 278 323 353 0
34 259 274 279 324 364 0
33 178 258 273 278 333 343 0
33 258 273 278 333 353 0
31 186 256 271 276 336 341 0
34 194 259 274 279 339 349 0
34 259 274 279 339 364 0
31 256 271 276 336 366 0
31 256 271 276 341 361 0
33 258 273 278 343 368 0
34 259 274 279 349 354 0
34 209 259 274 279 354 364 0
33 213 258 273 278 353 368 0
31 236 256 271 276 361 366 0
35 75 85 95 260 275 285 290 300 0
35 75 260 275 285 290 320 0
35 75 260 275 285 290 340 0
35 75 260 275 285 290 360 0
32 77 82 97 257 272 282 292 297 0
32 77 257 272 282 292 302 0
34 79 259 274 284 294 319 0
32 77 257 272 282 292 332 0
34 79 259 274 284 294 334 0
32 77 257 272 282 292 362 0
34 79 259 274 284 294 374 0
35 85 260 275 285 300 310 0
32 82 257 272 282 297 322 0
32 82 257 272 282 297 327 0
35 85 260 275 285 300 330 0
32 82 257 272 282 297 357 0
35 85 260 275 285 300 375 0
32 117 257 272 282 302 322 0
32 257 272 282 302 327 0
32 257 272 282 302 357 0
34 129 259 274 284 309 319 0
35 130 260 275 285 310 320 0
34 259 274 284 309 334 0
35 260 275 285 310 340 0
35 260 275 285 310 360 0
34 259 274 284 309 374 0
35 260 275 285 320 330 0
34 259 274 284 319 349 0
34 259 274 284 319 364 0
35 260 275 285 320 375 0
32 257 272 282 322 332 0
32 257 272 282 322 362 0
32 152 257 272 282 327 332 0
35 160 260 275 285 330 340 0
35 260 275 285 330 360 0
32 257 272 282 327 362 0
34 184 259 274 284 334 349 0
32 257 272 282 332 357 0
34 259 274 284 334 364 0
35 260 275 285 340 375 0
34 259 274 284 349 374 0
32 222 257 272 282 357 362 0
35 235 260 275 285 360 375 0
34 244 259 274 284 364 374 0
31 86 256 271 286 291 301 0
31 86 256 271 286 291 326 0
31 86 256 271 286 291 351 0
35 95 260 275 290 300 305 0
33 93 258 273 288 298 313 0
33 93 258 273 288 298 348 0
35 95 260 275 290 300 350 0
33 93 258 273 288 298 358 0
35 95 260 275 290 300 370 0
31 111 256 271 286 301 316 0
35 115 260 275 290 305 320 0
35 260 275 290 305 340 0
31 256 271 286 301 341 0
35 260 275 290 305 360 0
31 256 271 286 301 366 0
33 123 258 273 288 308 313 0
33 258 273 288 308 348 0
33 258 273 288 308 358 0
33 258 273 288 313 343 0
33 258 273 288 313 353 0
31 256 271 286 316 326 0
35 260 275 290 320 350 0
31 256 271 286 316 351 0
35 260 275 290 320 370 0
31 161 256 271 286 326 341 0
31 256 271 286 326 366 0
35 195 260 275 290 340 350 0
35 260 275 290 340 370 0
33 198 258 273 288 343 348 0
31 256 271 286 341 351 0
33 258 273 288 343 358 0
33 258 273 288 348 353 0
35 260 275 290 350 360 0
33 203 258 273 288 353 358 0
31 211 256 271 286 351 366 0
35 230 260 275 290 360 370 0
32 97 257 272 292 297 312 0
32 97 257 272 292 297 342 0
32 97 257 272 292 297 372 0
31 106 256 271 291 301 311 0
32 107 257 272 292 302 312 0
31 256 271 291 301 336 0
32 257 272 292 302 342 0
31 256 271 291 301 361 0
32 257 272 292 302 372 0
31 256 271 291 311 326 0
32 257 272 292 312 332 0
31 256 271 291 311 351 0
32 257 272 292 312 362 0
34 149 259 274 294 319 324 0
34 259 274 294 319 339 0
34 259 274 294 319 354 0
34 259 274 294 324 334 0
34 259 274 294 324 374 0
31 156 256 271 291 326 336 0
31 256 271 291 326 361 0
34 174 259 274 294 334 339 0
32 177 257 272 292 332 342 0
34 259 274 294 334 354 0
32 257 272 292 332 372 0
31 256 271 291 336 351 0
34 259 274 294 339 374 0
32 257 272 292 342 362 0
31 206 256 271 291 351 361 0
34 219 259 274 294 354 374 0
32 242 257 272 292 362 372 0
35 105 260 275 300 305 310 0
35 260 275 300 305 330 0
35 260 275 300 305 375 0
35 260 275 300 310 350 0
35 260 275 300 310 370 0
32 142 257 272 297 312 322 0
33 143 258 273 298 313 323 0
32 257 272 297 312 327 0
33 258 273 298 313 333 0
32 257 272 297 312 357 0
33 258 273 298 313 368 0
32 257 272 297 322 342 0
33 258 273 298 323 348 0
33 258 273 298 323 358 0
32 257 272 297 322 372 0
32 162 257 272 297 327 342 0
35 170 260 275 300 330 350 0
35 260 275 300 330 370 0
32 257 272 297 327 372 0
33 183 258 273 298 333 348 0
33 258 273 298 333 358 0
32 257 272 297 342 357 0
33 258 273 298 348 368 0
35 260 275 300 350 375 0
33 228 258 273 298 358 368 0
32 232 257 272 297 357 372 0
35 250 260 275 300 370 375 0
35 105 115 130 260 275 305 310 320 0
35 105 260 275 305 310 340 0
35 105 260 275 305 310 360 0
31 106 111 136 256 271 301 311 316 0
32 107 117 142 257 272 302 312 322 0
32 107 257 272 302 312 327 0
31 106 256 271 301 311 341 0
32 107 257 272 302 312 357 0
31 106 256 271 301 311 366 0
35 115 260 275 305 320 330 0
31 111 256 271 301 316 336 0
31 111 256 271 301 316 361 0
35 115 260 275 305 320 375 0
32 117 257 272 302 322 342 0
32 117 257 272 302 322 372 0
35 160 260 275 305 330 340 0
32 162 257 272 302 327 342 0
35 260 275 305 330 360 0
32 257 272 302 327 372 0
31 186 256 271 301 336 341 0
31 256 271 301 336 366 0
35 260 275 305 340 375 0
32 257 272 302 342 357 0
31 256 271 301 341 361 0
32 232 257 272 302 357 372 0
35 235 260 275 305 360 375 0
31 236 256 271 301 361 366 0
33 123 133 143 258 273 308 313 323 0
33 123 258 273 308 313 333 0
33 123 258 273 308 313 368 0
34 129 134 149 259 274 309 319 324 0
34 129 259 274 309 319 339 0
35 130 260 275 310 320 350 0
34 129 259 274 309 319 354 0
35 130 260 275 310 320 370 0
34 134 259 274 309 324 334 0
33 133 258 273 308 323 348 0
33 133 258 273 308 323 358 0
34 134 259 274 309 324 374 0
34 174 259 274 309 334 339 0
33 183 258 273 308 333 348 0
34 259 274 309 334 354 0
33 258 273 308 333 358 0
35 195 260 275 310 340 350 0
35 260 275 310 340 370 0
34 259 274 309 339 374 0
35 260 275 310 350 360 0
33 258 273 308 348 368 0
34 219 259 274 309 354 374 0
33 228 258 273 308 358 368 0
35 230 260 275 310 360 370 0
31 136 256 271 311 316 326 0
31 136 256 271 311 316 351 0
32 142 257 272 312 322 332 0
33 143 258 273 313 323 343 0
33 143 258 273 313 323 353 0
32 142 257 272 312 322 362 0
32 152 257 272 312 327 332 0
31 161 256 271 311 326 341 0
32 257 272 312 327 362 0
31 256 271 311 326 366 0
33 178 258 273 313 333 343 0
33 258 273 313 333 353 0
32 257 272 312 332 357 0
31 256 271 311 341 351 0
33 258 273 313 343 368 0
31 211 256 271 311 351 366 0
33 213 258 273 313 353 368 0
32 222 257 272 312 357 362 0
34 149 259 274 319 324 349 0
34 149 259 274 319 324 364 0
31 156 256 271 316 326 336 0
35 170 260 275 320 330 350 0
31 256 271 316 326 361 0
35 260 275 320 330 370 0
34 194 259 274 319 339 349 0
31 256 271 316 336 351 0
34 259 274 319 339 364 0
34 259 274 319 349 354 0
35 260 275 320 350 375 0
31 206 256 271 316 351 361 0
34 209 259 274 319 354 364 0
35 250 260 275 320 370 375 0
32 177 257 272 322 332 342 0
34 184 259 274 324 334 349 0
34 259 274 324 334 364 0
32 257 272 322 332 372 0
33 198 258 273 323 343 348 0
33 258 273 323 343 358 0
32 257 272 322 342 362 0
33 258 273 323 348 353 0
34 259 274 324 349 374 0
33 203 258 273 323 353 358 0
32 242 257 272 322 362 372 0
34 244 259 274 324 364 374 0
32 152 162 177 257 272 327 332 342 0
32 152 257 272 327 332 372 0
31 156 161 186 256 271 326 336 341 0
35 160 170 195 260 275 330 340 350 0
31 156 256 271 326 336 366 0
35 160 260 275 330 340 370 0
31 161 256 271 326 341 361 0
32 162 257 272 327 342 362 0
35 170 260 275 330 350 360 0
35 230 260 275 330 360 370 0
31 236 256 271 326 361 366 0
32 242 257 272 327 362 372 0
34 174 184 194 259 274 334 339 349 0
34 174 259 274 334 339 364 0
33 178 183 198 258 273 333 343 348 0
32 177 257 272 332 342 357 0
33 178 258 273 333 343 358 0
33 183 258 273 333 348 353 0
34 184 259 274 334 349 354 0
33 203 258 273 333 353 358 0
34 209 259 274 334 354 364 0
32 232 257 272 332 357 372 0
31 186 256 271 336 341 351 0
34 194 259 274 339 349 374 0
35 195 260 275 340 350 375 0
31 211 256 271 336 351 366 0
34 244 259 274 339 364 374 0
35 250 260 275 340 370 375 0
33 198 258 273 343 348 368 0
31 206 256 271 341 351 361 0
32 222 257 272 342 357 362 0
33 228 258 273 343 358 368 0
33 213 258 273 348 353 368 0
34 219 259 274 349 354 374 0
35 235 260 275 350 360 375 0
33 203 213 228 258 273 353 358 368 0
31 206 211 236 256 271 351 361 366 0
34 209 219 244 259 274 354 364 374 0
32 222 232 242 257 272 357 362 372 0
35 230 235 250 260 275 360 370 375 0
54 59 64 74 79 89 259 279 284 289 294 0
53 58 68 73 83 93 258 278 283 288 298 0
53 58 73 258 278 283 288 308 0
54 59 74 259 279 284 289 309 0
53 58 73 258 278 283 288 343 0
54 59 74 259 279 284 289 349 0
53 58 73 258 278 283 288 353 0
54 59 74 259 279 284 289 364 0
52 62 67 77 82 97 257 277 282 292 297 0
52 62 77 257 277 282 292 302 0
54 64 79 259 279 284 294 304 0
52 62 77 257 277 282 292 332 0
54 64 79 259 279 284 294 344 0
54 64 79 259 279 284 294 359 0
52 62 77 257 277 282 292 362 0
52 67 82 257 277 282 297 322 0
53 68 83 258 278 283 298 323 0
52 67 82 257 277 282 297 327 0
53 68 83 258 278 283 298 333 0
52 67 82 257 277 282 297 357 0
53 68 83 258 278 283 298 368 0
54 104 259 279 284 304 309 0
52 117 257 277 282 302 322 0
52 257 277 282 302 327 0
54 259 279 284 304 349 0
52 257 277 282 302 357 0
54 259 279 284 304 364 0
53 133 258 278 283 308 323 0
53 258 278 283 308 333 0
54 259 279 284 309 344 0
54 259 279 284 309 359 0
53 258 278 283 308 368 0
52 257 277 282 322 332 0
53 258 278 283 323 343 0
53 258 278 283 323 353 0
52 257 277 282 322 362 0
52 152 257 277 282 327 332 0
52 257 277 282 327 362 0
53 178 258 278 283 333 343 0
53 258 278 283 333 353 0
52 257 277 282 332 357 0
54 199 259 279 284 344 349 0
54 259 279 284 344 364 0
53 258 278 283 343 368 0
54 259 279 284 349 359 0
53 213 258 278 283 353 368 0
52 222 257 277 282 357 362 0
54 224 259 279 284 359 364 0
56 61 66 86 91 96 256 276 286 291 296 0
56 61 86 256 276 286 291 321 0
59 64 89 259 279 289 294 324 0
59 64 89 259 279 289 294 339 0
56 61 86 256 276 286 291 346 0
59 64 89 259 279 289 294 354 0
56 61 86 256 276 286 291 371 0
56 66 91 256 276 286 296 316 0
58 68 93 258 278 288 298 318 0
58 68 93 258 278 288 298 328 0
56 66 91 256 276 286 296 341 0
58 68 93 258 278 288 298 363 0
56 66 91 256 276 286 296 366 0
58 128 258 278 288 308 318 0
59 134 259 279 289 309 324 0
58 258 278 288 308 328 0
59 259 279 289 309 339 0
59 259 279 289 309 354 0
58 258 278 288 308 363 0
56 146 256 276 286 316 321 0
58 258 278 288 318 343 0
56 256 276 286 316 346 0
58 258 278 288 318 353 0
56 256 276 286 316 371 0
56 256 276 286 321 341 0
59 259 279 289 324 349 0
59 259 279 289 324 364 0
56 256 276 286 321 366 0
58 163 258 278 288 328 343 0
58 258 278 288 328 353 0
59 194 259 279 289 339 349 0
59 259 279 289 339 364 0
56 196 256 276 286 341 346 0
58 258 278 288 343 363 0
56 256 276 286 341 371 0
59 259 279 289 349 354 0
56 256 276 286 346 366 0
58 208 258 278 288 353 363 0
59 209 259 279 289 354 364 0
56 246 256 276 286 366 371 0
61 66 96 256 276 291 296 311 0
62 67 97 257 277 292 297 312 0
61 66 96 256 276 291 296 336 0
62 67 97 257 277 292 297 342 0
61 66 96 256 276 291 296 361 0
62 67 97 257 277 292 297 372 0
62 107 257 277 292 302 312 0
64 119 259 279 294 304 324 0
64 259 279 294 304 339 0
62 257 277 292 302 342 0
64 259 279 294 304 354 0
62 257 277 292 302 372 0
61 141 256 276 291 311 321 0
62 257 277 292 312 332 0
61 256 276 291 311 346 0
62 257 277 292 312 362 0
61 256 276 291 311 371 0
61 256 276 291 321 336 0
64 259 279 294 324 344 0
64 259 279 294 324 359 0
61 256 276 291 321 361 0
62 177 257 277 292 332 342 0
62 257 277 292 332 372 0
64 189 259 279 294 339 344 0
61 191 256 276 291 336 346 0
64 259 279 294 339 359 0
61 256 276 291 336 371 0
64 259 279 294 344 354 0
62 257 277 292 342 362 0
61 256 276 291 346 361 0
64 204 259 279 294 354 359 0
61 241 256 276 291 361 371 0
62 242 257 277 292 362 372 0
66 136 256 276 296 311 316 0
67 142 257 277 297 312 322 0
67 257 277 297 312 327 0
66 256 276 296 311 341 0
67 257 277 297 312 357 0
66 256 276 296 311 366 0
68 148 258 278 298 318 323 0
68 258 278 298 318 333 0
66 256 276 296 316 336 0
66 256 276 296 316 361 0
68 258 278 298 318 368 0
68 258 278 298 323 328 0
67 257 277 297 322 342 0
68 258 278 298 323 363 0
67 257 277 297 322 372 0
68 153 258 278 298 328 333 0
67 162 257 277 297 327 342 0
68 258 278 298 328 368 0
67 257 277 297 327 372 0
68 258 278 298 333 363 0
66 186 256 276 296 336 341 0
66 256 276 296 336 366 0
67 257 277 297 342 357 0
66 256 276 296 341 361 0
67 232 257 277 297 357 372 0
66 236 256 276 296 361 366 0
68 238 258 278 298 363 368 0
104 119 134 259 279 304 309 324 0
104 259 279 304 309 339 0
104 259 279 304 309 354 0
107 117 142 257 277 302 312 322 0
107 257 277 302 312 327 0
107 257 277 302 312 357 0
117 257 277 302 322 342 0
119 259 279 304 324 349 0
119 259 279 304 324 364 0
117 257 277 302 322 372 0
162 257 277 302 327 342 0
257 277 302 327 372 0
194 259 279 304 339 349 0
259 279 304 339 364 0
257 277 302 342 357 0
259 279 304 349 354 0
209 259 279 304 354 364 0
232 257 277 302 357 372 0
128 133 148 258 278 308 318 323 0
128 258 278 308 318 333 0
128 258 278 308 318 368 0
133 258 278 308 323 328 0
134 259 279 309 324 344 0
134 259 279 309 324 359 0
133 258 278 308 323 363 0
153 258 278 308 328 333 0
258 278 308 328 368 0
258 278 308 333 363 0
189 259 279 309 339 344 0
259 279 309 339 359 0
259 279 309 344 354 0
204 259 279 309 354 359 0
238 258 278 308 363 368 0
136 141 146 256 276 311 316 321 0
136 256 276 311 316 346 0
136 256 276 311 316 371 0
142 257 277 312 322 332 0
141 256 276 311 321 341 0
142 257 277 312 322 362 0
141 256 276 311 321 366 0
152 257 277 312 327 332 0
257 277 312 327 362 0
257 277 312 332 357 0
196 256 276 311 341 346 0
256 276 311 341 371 0
256 276 311 346 366 0
222 257 277 312 357 362 0
246 256 276 311 366 371 0
146 256 276 316 321 336 0
148 258 278 318 323 343 0
148 258 278 318 323 353 0
146 256 276 316 321 361 0
178 258 278 318 333 343 0
258 278 318 333 353 0
191 256 276 316 336 346 0
256 276 316 336 371 0
258 278 318 343 368 0
256 276 316 346 361 0
213 258 278 318 353 368 0
241 256 276 316 361 371 0
163 258 278 323 328 343 0
258 278 323 328 353 0
177 257 277 322 332 342 0
257 277 322 332 372 0
186 256 276 321 336 341 0
256 276 321 336 366 0
199 259 279 324 344 349 0
256 276 321 341 361 0
257 277 322 342 362 0
258 278 323 343 363 0
259 279 324 344 364 0
259 279 324 349 359 0
208 258 278 323 353 363 0
224 259 279 324 359 364 0
236 256 276 321 361 366 0
242 257 277 322 362 372 0
152 162 177 257 277 327 332 342 0
153 163 178 258 278 328 333 343 0
153 258 278 328 333 353 0
152 257 277 327 332 372 0
162 257 277 327 342 362 0
163 258 278 328 343 368 0
213 258 278 328 353 368 0
242 257 277 327 362 372 0
177 257 277 332 342 357 0
178 258 278 333 343 363 0
208 258 278 333 353 363 0
232 257 277 332 357 372 0
186 191 196 256 276 336 341 346 0
189 194 199 259 279 339 344 349 0
189 259 279 339 344 364 0
186 256 276 336 341 371 0
194 259 279 339 349 359 0
191 256 276 336 346 366 0
224 259 279 339 359 364 0
246 256 276 336 366 371 0
199 259 279 344 349 354 0
196 256 276 341 346 361 0
209 259 279 344 354 364 0
222 257 277 342 357 362 0
238 258 278 343 363 368 0
241 256 276 341 361 371 0
204 259 279 349 354 359 0
236 256 276 346 361 366 0
204 209 224 259 279 354 359 364 0
208 213 238 258 278 353 363 368 0
222 232 242 257 277 357 362 372 0
236 241 246 256 276 361 366 371 0
75 80 85 90 95 100 260 285 290 295 300 0
74 79 89 259 284 289 294 319 0
75 80 90 260 285 290 295 320 0
74 79 89 259 284 289 294 334 0
75 80 90 260 285 290 295 340 0
75 80 90 260 285 290 295 360 0
74 79 89 259 284 289 294 374 0
73 83 93 258 283 288 298 313 0
75 85 95 260 285 290 300 315 0
75 85 95 260 285 290 300 335 0
73 83 93 258 283 288 298 348 0
75 85 95 260 285 290 300 355 0
73 83 93 258 283 288 298 358 0
73 123 258 283 288 308 313 0
74 129 259 284 289 309 319 0
74 259 284 289 309 334 0
73 258 283 288 308 348 0
73 258 283 288 308 358 0
74 259 284 289 309 374 0
75 140 260 285 290 315 320 0
75 260 285 290 315 340 0
73 258 283 288 313 343 0
73 258 283 288 313 353 0
75 260 285 290 315 360 0
75 260 285 290 320 335 0
74 259 284 289 319 349 0
75 260 285 290 320 355 0
74 259 284 289 319 364 0
75 175 260 285 290 335 340 0
74 184 259 284 289 334 349 0
75 260 285 290 335 360 0
74 259 284 289 334 364 0
75 260 285 290 340 355 0
73 198 258 283 288 343 348 0
73 258 283 288 343 358 0
73 258 283 288 348 353 0
74 259 284 289 349 374 0
73 203 258 283 288 353 358 0
75 205 260 285 290 355 360 0
74 244 259 284 289 364 374 0
77 82 97 257 282 292 297 307 0
80 85 100 260 285 295 300 310 0
80 85 100 260 285 295 300 330 0
77 82 97 257 282 292 297 337 0
77 82 97 257 282 292 297 367 0
80 85 100 260 285 295 300 375 0
77 102 257 282 292 302 307 0
79 114 259 284 294 304 319 0
79 259 284 294 304 334 0
77 257 282 292 302 337 0
77 257 282 292 302 367 0
79 259 284 294 304 374 0
80 130 260 285 295 310 320 0
77 257 282 292 307 332 0
80 260 285 295 310 340 0
80 260 285 295 310 360 0
77 257 282 292 307 362 0
80 260 285 295 320 330 0
79 259 284 294 319 344 0
79 259 284 294 319 359 0
80 260 285 295 320 375 0
80 160 260 285 295 330 340 0
80 260 285 295 330 360 0
77 172 257 282 292 332 337 0
79 179 259 284 294 334 344 0
79 259 284 294 334 359 0
77 257 282 292 332 367 0
77 257 282 292 337 362 0
80 260 285 295 340 375 0
79 259 284 294 344 374 0
79 234 259 284 294 359 374 0
80 235 260 285 295 360 375 0
77 237 257 282 292 362 367 0
85 125 260 285 300 310 315 0
82 132 257 282 297 307 322 0
82 257 282 297 307 327 0
85 260 285 300 310 335 0
85 260 285 300 310 355 0
82 257 282 297 307 357 0
83 143 258 283 298 313 323 0
85 260 285 300 315 330 0
83 258 283 298 313 333 0
83 258 283 298 313 368 0
85 260 285 300 315 375 0
82 257 282 297 322 337 0
83 258 283 298 323 348 0
83 258 283 298 323 358 0
82 257 282 297 322 367 0
85 155 260 285 300 330 335 0
82 157 257 282 297 327 337 0
85 260 285 300 330 355 0
82 257 282 297 327 367 0
83 183 258 283 298 333 348 0
83 258 283 298 333 358 0
85 260 285 300 335 375 0
82 257 282 297 337 357 0
83 258 283 298 348 368 0
85 220 260 285 300 355 375 0
82 227 257 282 297 357 367 0
83 228 258 283 298 358 368 0
104 114 129 259 284 304 309 319 0
102 117 132 257 282 302 307 322 0
102 257 282 302 307 327 0
104 259 284 304 309 334 0
102 257 282 302 307 357 0
104 259 284 304 309 374 0
114 259 284 304 319 349 0
114 259 284 304 319 364 0
117 257 282 302 322 337 0
117 257 282 302 322 367 0
157 257 282 302 327 337 0
257 282 302 327 367 0
184 259 284 304 334 349 0
259 284 304 334 364 0
257 282 302 337 357 0
259 284 304 349 374 0
227 257 282 302 357 367 0
244 259 284 304 364 374 0
125 130 140 260 285 310 315 320 0
123 133 143 258 283 308 313 323 0
123 258 283 308 313 333 0
125 260 285 310 315 340 0
125 260 285 310 315 360 0
123 258 283 308 313 368 0
130 260 285 310 320 335 0
129 259 284 309 319 344 0
130 260 285 310 320 355 0
129 259 284 309 319 359 0
132 257 282 307 322 332 0
133 258 283 308 323 348 0
133 258 283 308 323 358 0
132 257 282 307 322 362 0
152 257 282 307 327 332 0
257 282 307 327 362 0
175 260 285 310 335 340 0
179 259 284 309 334 344 0
183 258 283 308 333 348 0
257 282 307 332 357 0
258 283 308 333 358 0
259 284 309 334 359 0
260 285 310 335 360 0
260 285 310 340 355 0
259 284 309 344 374 0
258 283 308 348 368 0
205 260 285 310 355 360 0
222 257 282 307 357 362 0
228 258 283 308 358 368 0
234 259 284 309 359 374 0
140 260 285 315 320 330 0
140 260 285 315 320 375 0
143 258 283 313 323 343 0
143 258 283 313 323 353 0
160 260 285 315 330 340 0
260 285 315 330 360 0
178 258 283 313 333 343 0
258 283 313 333 353 0
260 285 315 340 375 0
258 283 313 343 368 0
213 258 283 313 353 368 0
235 260 285 315 360 375 0
155 260 285 320 330 335 0
260 285 320 330 355 0
260 285 320 335 375 0
199 259 284 319 344 349 0
259 284 319 344 364 0
259 284 319 349 359 0
220 260 285 320 355 375 0
224 259 284 319 359 364 0
172 257 282 322 332 337 0
257 282 322 332 367 0
257 282 322 337 362 0
198 258 283 323 343 348 0
258 283 323 343 358 0
258 283 323 348 353 0
203 258 283 323 353 358 0
237 257 282 322 362 367 0
152 157 172 257 282 327 332 337 0
155 160 175 260 285 330 335 340 0
155 260 285 330 335 360 0
152 257 282 327 332 367 0
160 260 285 330 340 355 0
157 257 282 327 337 362 0
205 260 285 330 355 360 0
237 257 282 327 362 367 0
172 257 282 332 337 357 0
175 260 285 335 340 375 0
178 183 198 258 283 333 343 348 0
179 184 199 259 284 334 344 349 0
178 258 283 333 343 358 0
179 259 284 334 344 364 0
183 258 283 333 348 353 0
184 259 284 334 349 359 0
203 258 283 333 353 358 0
224 259 284 334 359 364 0
227 257 282 332 357 367 0
235 260 285 335 360 375 0
220 260 285 340 355 375 0
222 257 282 337 357 362 0
198 258 283 343 348 368 0
199 259 284 344 349 374 0
228 258 283 343 358 368 0
244 259 284 344 364 374 0
213 258 283 348 353 368 0
234 259 284 349 359 374 0
203 213 228 258 283 353 358 368 0
205 220 235 260 285 355 360 375 0
222 227 237 257 282 357 362 367 0
224 234 244 259 284 359 364 374 0
86 91 96 256 286 291 296 301 0
90 95 100 260 290 295 300 305 0
86 91 96 256 286 291 296 326 0
90 95 100 260 290 295 300 350 0
86 91 96 256 286 291 296 351 0
90 95 100 260 290 295 300 370 0
90 115 260 290 295 305 320 0
86 116 256 286 291 301 321 0
90 260 290 295 305 340 0
86 256 286 291 301 346 0
90 260 290 295 305 360 0
86 256 286 291 301 371 0
89 149 259 289 294 319 324 0
89 259 289 294 319 339 0
90 260 290 295 320 350 0
89 259 289 294 319 354 0
90 260 290 295 320 370 0
86 256 286 291 321 326 0
89 259 289 294 324 334 0
86 256 286 291 321 351 0
89 259 289 294 324 374 0
86 166 256 286 291 326 346 0
86 256 286 291 326 371 0
89 174 259 289 294 334 339 0
89 259 289 294 334 354 0
90 195 260 290 295 340 350 0
90 260 290 295 340 370 0
89 259 289 294 339 374 0
86 256 286 291 346 351 0
90 260 290 295 350 360 0
86 216 256 286 291 351 371 0
89 219 259 289 294 354 374 0
90 230 260 290 295 360 370 0
95 110 260 290 300 305 315 0
91 111 256 286 296 301 316 0
95 260 290 300 305 335 0
91 256 286 296 301 341 0
95 260 290 300 305 355 0
91 256 286 296 301 366 0
93 138 258 288 298 313 318 0
93 258 288 298 313 328 0
95 260 290 300 315 350 0
93 258 288 298 313 363 0
95 260 290 300 315 370 0
91 256 286 296 316 326 0
93 258 288 298 318 348 0
91 256 286 296 316 351 0
93 258 288 298 318 358 0
91 161 256 286 296 326 341 0
93 168 258 288 298 328 348 0
93 258 288 298 328 358 0
91 256 286 296 326 366 0
95 185 260 290 300 335 350 0
95 260 290 300 335 370 0
91 256 286 296 341 351 0
95 260 290 300 350 355 0
93 258 288 298 348 363 0
91 211 256 286 296 351 366 0
95 215 260 290 300 355 370 0
93 223 258 288 298 358 363 0
110 115 140 260 290 305 315 320 0
110 260 290 305 315 340 0
110 260 290 305 315 360 0
111 116 146 256 286 301 316 321 0
115 260 290 305 320 335 0
111 256 286 301 316 346 0
115 260 290 305 320 355 0
111 256 286 301 316 371 0
116 256 286 301 321 341 0
116 256 286 301 321 366 0
175 260 290 305 335 340 0
260 290 305 335 360 0
260 290 305 340 355 0
196 256 286 301 341 346 0
256 286 301 341 371 0
256 286 301 346 366 0
205 260 290 305 355 360 0
246 256 286 301 366 371 0
123 128 138 258 288 308 313 318 0
123 258 288 308 313 328 0
123 258 288 308 313 363 0
129 134 149 259 289 309 319 324 0
129 259 289 309 319 339 0
128 258 288 308 318 348 0
129 259 289 309 319 354 0
128 258 288 308 318 358 0
134 259 289 309 324 334 0
134 259 289 309 324 374 0
168 258 288 308 328 348 0
258 288 308 328 358 0
174 259 289 309 334 339 0
259 289 309 334 354 0
259 289 309 339 374 0
258 288 308 348 363 0
219 259 289 309 354 374 0
223 258 288 308 358 363 0
138 258 288 313 318 343 0
140 260 290 315 320 350 0
138 258 288 313 318 353 0
140 260 290 315 320 370 0
163 258 288 313 328 343 0
258 288 313 328 353 0
195 260 290 315 340 350 0
260 290 315 340 370 0
258 288 313 343 363 0
260 290 315 350 360 0
208 258 288 313 353 363 0
230 260 290 315 360 370 0
146 256 286 316 321 326 0
149 259 289 319 324 349 0
146 256 286 316 321 351 0
149 259 289 319 324 364 0
166 256 286 316 326 346 0
256 286 316 326 371 0
185 260 290 320 335 350 0
260 290 320 335 370 0
194 259 289 319 339 349 0
259 289 319 339 364 0
198 258 288 318 343 348 0
258 288 318 343 358 0
256 286 316 346 351 0
258 288 318 348 353 0
259 289 319 349 354 0
260 290 320 350 355 0
203 258 288 318 353 358 0
209 259 289 319 354 364 0
215 260 290 320 355 370 0
216 256 286 316 351 371 0
161 256 286 321 326 341 0
256 286 321 326 366 0
184 259 289 324 334 349 0
259 289 324 334 364 0
256 286 321 341 351 0
259 289 324 349 374 0
211 256 286 321 351 366 0
244 259 289 324 364 374 0
161 166 196 256 286 326 341 346 0
163 168 198 258 288 328 343 348 0
163 258 288 328 343 358 0
161 256 286 326 341 371 0
168 258 288 328 348 353 0
166 256 286 326 346 366 0
203 258 288 328 353 358 0
246 256 286 326 366 371 0
174 184 194 259 289 334 339 349 0
175 185 195 260 290 335 340 350 0
174 259 289 334 339 364 0
175 260 290 335 340 370 0
184 259 289 334 349 354 0
185 260 290 335 350 360 0
209 259 289 334 354 364 0
230 260 290 335 360 370 0
195 260 290 340 350 355 0
194 259 289 339 349 374 0
215 260 290 340 355 370 0
244 259 289 339 364 374 0
196 256 286 341 346 351 0
198 258 288 343 348 363 0
216 256 286 341 351 371 0
223 258 288 343 358 363 0
205 260 290 350 355 360 0
208 258 288 348 353 363 0
211 256 286 346 351 366 0
219 259 289 349 354 374 0
203 208 223 258 288 353 358 363 0
205 215 230 260 290 355 360 370 0
209 219 244 259 289 354 364 374 0
211 216 246 256 286 351 366 371 0
100 105 260 295 300 305 310 0
96 106 256 291 296 301 311 0
100 260 295 300 305 330 0
96 256 291 296 301 336 0
96 256 291 296 301 361 0
100 260 295 300 305 375 0
97 122 257 292 297 307 312 0
97 257 292 297 307 342 0
100 260 295 300 310 350 0
100 260 295 300 310 370 0
97 257 292 297 307 372 0
96 256 291 296 311 326 0
97 257 292 297 312 337 0
96 256 291 296 311 351 0
97 257 292 297 312 367 0
96 156 256 291 296 326 336 0
100 170 260 295 300 330 350 0
96 256 291 296 326 361 0
100 260 295 300 330 370 0
97 187 257 292 297 337 342 0
96 256 291 296 336 351 0
97 257 292 297 337 372 0
97 257 292 297 342 367 0
100 260 295 300 350 375 0
96 206 256 291 296 351 361 0
97 247 257 292 297 367 372 0
100 250 260 295 300 370 375 0
102 107 122 257 292 302 307 312 0
105 115 130 260 295 305 310 320 0
105 260 295 305 310 340 0
102 257 292 302 307 342 0
105 260 295 305 310 360 0
102 257 292 302 307 372 0
106 116 141 256 291 301 311 321 0
107 257 292 302 312 337 0
106 256 291 301 311 346 0
107 257 292 302 312 367 0
106 256 291 301 311 371 0
114 119 149 259 294 304 319 324 0
115 260 295 305 320 330 0
114 259 294 304 319 339 0
114 259 294 304 319 354 0
115 260 295 305 320 375 0
119 259 294 304 324 334 0
116 256 291 301 321 336 0
116 256 291 301 321 361 0
119 259 294 304 324 374 0
160 260 295 305 330 340 0
260 295 305 330 360 0
174 259 294 304 334 339 0
259 294 304 334 354 0
187 257 292 302 337 342 0
191 256 291 301 336 346 0
256 291 301 336 371 0
257 292 302 337 372 0
259 294 304 339 374 0
260 295 305 340 375 0
257 292 302 342 367 0
256 291 301 346 361 0
219 259 294 304 354 374 0
235 260 295 305 360 375 0
241 256 291 301 361 371 0
247 257 292 302 367 372 0
122 257 292 307 312 332 0
122 257 292 307 312 362 0
130 260 295 310 320 350 0
130 260 295 310 320 370 0
177 257 292 307 332 342 0
257 292 307 332 372 0
195 260 295 310 340 350 0
260 295 310 340 370 0
257 292 307 342 362 0
260 295 310 350 360 0
230 260 295 310 360 370 0
242 257 292 307 362 372 0
141 256 291 311 321 326 0
141 256 291 311 321 351 0
166 256 291 311 326 346 0
256 291 311 326 371 0
172 257 292 312 332 337 0
257 292 312 332 367 0
257 292 312 337 362 0
256 291 311 346 351 0
216 256 291 311 351 371 0
237 257 292 312 362 367 0
149 259 294 319 324 344 0
149 259 294 319 324 359 0
170 260 295 320 330 350 0
260 295 320 330 370 0
189 259 294 319 339 344 0
259 294 319 339 359 0
259 294 319 344 354 0
260 295 320 350 375 0
204 259 294 319 354 359 0
250 260 295 320 370 375 0
156 256 291 321 326 336 0
256 291 321 326 361 0
179 259 294 324 334 344 0
259 294 324 334 359 0
256 291 321 336 351 0
259 294 324 344 374 0
206 256 291 321 351 361 0
234 259 294 324 359 374 0
156 166 191 256 291 326 336 346 0
160 170 195 260 295 330 340 350 0
160 260 295 330 340 370 0
156 256 291 326 336 371 0
170 260 295 330 350 360 0
166 256 291 326 346 361 0
230 260 295 330 360 370 0
241 256 291 326 361 371 0
172 177 187 257 292 332 337 342 0
174 179 189 259 294 334 339 344 0
174 259 294 334 339 359 0
172 257 292 332 337 372 0
179 259 294 334 344 354 0
177 257 292 332 342 367 0
204 259 294 334 354 359 0
247 257 292 332 367 372 0
187 257 292 337 342 362 0
189 259 294 339 344 374 0
191 256 291 336 346 351 0
195 260 295 340 350 375 0
216 256 291 336 351 371 0
234 259 294 339 359 374 0
242 257 292 337 362 372 0
250 260 295 340 370 375 0
219 259 294 344 354 374 0
237 257 292 342 362 367 0
206 256 291 346 351 361 0
235 260 295 350 360 375 0
204 219 234 259 294 354 359 374 0
206 216 241 256 291 351 361 371 0
230 235 250 260 295 360 370 375 0
237 242 247 257 292 362 367 372 0
105 110 125 260 300 305 310 315 0
105 260 300 305 310 335 0
105 260 300 305 310 355 0
106 111 136 256 296 301 311 316 0
110 260 300 305 315 330 0
106 256 296 301 311 341 0
106 256 296 301 311 366 0
110 260 300 305 315 375 0
111 256 296 301 316 336 0
111 256 296 301 316 361 0
155 260 300 305 330 335 0
260 300 305 330 355 0
260 300 305 335 375 0
186 256 296 301 336 341 0
256 296 301 336 366 0
256 296 301 341 361 0
220 260 300 305 355 375 0
236 256 296 301 361 366 0
122 132 142 257 297 307 312 322 0
122 257 297 307 312 327 0
125 260 300 310 315 350 0
122 257 297 307 312 357 0
125 260 300 310 315 370 0
132 257 297 307 322 342 0
132 257 297 307 322 372 0
162 257 297 307 327 342 0
257 297 307 327 372 0
185 260 300 310 335 350 0
260 300 310 335 370 0
257 297 307 342 357 0
260 300 310 350 355 0
215 260 300 310 355 370 0
232 257 297 307 357 372 0
138 143 148 258 298 313 318 323 0
136 256 296 311 316 326 0
138 258 298 313 318 333 0
136 256 296 311 316 351 0
138 258 298 313 318 368 0
143 258 298 313 323 328 0
142 257 297 312 322 337 0
143 258 298 313 323 363 0
142 257 297 312 322 367 0
153 258 298 313 328 333 0
157 257 297 312 327 337 0
161 256 296 311 326 341 0
170 260 300 315 330 350 0
256 296 311 326 366 0
257 297 312 327 367 0
258 298 313 328 368 0
260 300 315 330 370 0
258 298 313 333 363 0
257 297 312 337 357 0
256 296 311 341 351 0
260 300 315 350 375 0
211 256 296 311 351 366 0
227 257 297 312 357 367 0
238 258 298 313 363 368 0
250 260 300 315 370 375 0
148 258 298 318 323 348 0
148 258 298 318 323 358 0
156 256 296 316 326 336 0
256 296 316 326 361 0
183 258 298 318 333 348 0
258 298 318 333 358 0
256 296 316 336 351 0
258 298 318 348 368 0
206 256 296 316 351 361 0
228 258 298 318 358 368 0
168 258 298 323 328 348 0
258 298 323 328 358 0
187 257 297 322 337 342 0
257 297 322 337 372 0
257 297 322 342 367 0
258 298 323 348 363 0
223 258 298 323 358 363 0
247 257 297 322 367 372 0
153 168 183 258 298 328 333 348 0
155 170 185 260 300 330 335 350 0
153 258 298 328 333 358 0
155 260 300 330 335 370 0
156 161 186 256 296 326 336 341 0
157 162 187 257 297 327 337 342 0
156 256 296 326 336 366 0
157 257 297 327 337 372 0
161 256 296 326 341 361 0
162 257 297 327 342 367 0
170 260 300 330 350 355 0
168 258 298 328 348 368 0
215 260 300 330 355 370 0
228 258 298 328 358 368 0
236 256 296 326 361 366 0
247 257 297 327 367 372 0
183 258 298 333 348 363 0
185 260 300 335 350 375 0
223 258 298 333 358 363 0
250 260 300 335 370 375 0
186 256 296 336 341 351 0
187 257 297 337 342 357 0
211 256 296 336 351 366 0
232 257 297 337 357 372 0
206 256 296 341 351 361 0
227 257 297 342 357 367 0
220 260 300 350 355 375 0
238 258 298 348 363 368 0
206 211 236 256 296 351 361 366 0
215 220 250 260 300 355 370 375 0
223 228 238 258 298 358 363 368 0
227 232 247 257 297 357 367 372 0
105 110 115 125 130 140 260 305 310 315 320 0
102 107 117 122 132 142 257 302 307 312 322 0
102 107 122 257 302 307 312 327 0
105 110 125 260 305 310 315 340 0
102 107 122 257 302 307 312 357 0
105 110 125 260 305 310 315 360 0
104 114 119 129 134 149 259 304 309 319 324 0
105 115 130 260 305 310 320 335 0
104 114 129 259 304 309 319 339 0
104 114 129 259 304 309 319 354 0
105 115 130 260 305 310 320 355 0
104 119 134 259 304 309 324 334 0
102 117 132 257 302 307 322 342 0
102 117 132 257 302 307 322 372 0
104 119 134 259 304 309 324 374 0
102 162 257 302 307 327 342 0
102 257 302 307 327 372 0
104 174 259 304 309 334 339 0
105 175 260 305 310 335 340 0
104 259 304 309 334 354 0
105 260 305 310 335 360 0
105 260 305 310 340 355 0
104 259 304 309 339 374 0
102 257 302 307 342 357 0
105 205 260 305 310 355 360 0
104 219 259 304 309 354 374 0
102 232 257 302 307 357 372 0
106 111 116 136 141 146 256 301 311 316 321 0
110 115 140 260 305 315 320 330 0
106 111 136 256 301 311 316 346 0
106 111 136 256 301 311 316 371 0
110 115 140 260 305 315 320 375 0
107 117 142 257 302 312 322 337 0
106 116 141 256 301 311 321 341 0
106 116 141 256 301 311 321 366 0
107 117 142 257 302 312 322 367 0
107 157 257 302 312 327 337 0
110 160 260 305 315 330 340 0
110 260 305 315 330 360 0
107 257 302 312 327 367 0
107 257 302 312 337 357 0
110 260 305 315 340 375 0
106 196 256 301 311 341 346 0
106 256 301 311 341 371 0
106 256 301 311 346 366 0
107 227 257 302 312 357 367 0
110 235 260 305 315 360 375 0
106 246 256 301 311 366 371 0
111 116 146 256 301 316 321 336 0
114 119 149 259 304 319 324 349 0
111 116 146 256 301 316 321 361 0
114 119 149 259 304 319 324 364 0
115 155 260 305 320 330 335 0
115 260 305 320 330 355 0
115 260 305 320 335 375 0
111 191 256 301 316 336 346 0
114 194 259 304 319 339 349 0
114 259 304 319 339 364 0
111 256 301 316 336 371 0
114 259 304 319 349 354 0
111 256 301 316 346 361 0
114 209 259 304 319 354 364 0
115 220 260 305 320 355 375 0
111 241 256 301 316 361 371 0
119 184 259 304 324 334 349 0
119 259 304 324 334 364 0
116 186 256 301 321 336 341 0
117 187 257 302 322 337 342 0
116 256 301 321 336 366 0
117 257 302 322 337 372 0
116 256 301 321 341 361 0
117 257 302 322 342 367 0
119 259 304 324 349 374 0
116 236 256 301 321 361 366 0
119 244 259 304 324 364 374 0
117 247 257 302 322 367 372 0
155 160 175 260 305 330 335 340 0
155 260 305 330 335 360 0
157 162 187 257 302 327 337 342 0
160 260 305 330 340 355 0
157 257 302 327 337 372 0
162 257 302 327 342 367 0
205 260 305 330 355 360 0
247 257 302 327 367 372 0
174 184 194 259 304 334 339 349 0
174 259 304 334 339 364 0
175 260 305 335 340 375 0
184 259 304 334 349 354 0
209 259 304 334 354 364 0
235 260 305 335 360 375 0
186 191 196 256 301 336 341 346 0
187 257 302 337 342 357 0
186 256 301 336 341 371 0
191 256 301 336 346 366 0
194 259 304 339 349 374 0
220 260 305 340 355 375 0
232 257 302 337 357 372 0
244 259 304 339 364 374 0
246 256 301 336 366 371 0
196 256 301 341 346 361 0
227 257 302 342 357 367 0
241 256 301 341 361 371 0
219 259 304 349 354 374 0
236 256 301 346 361 366 0
205 220 235 260 305 355 360 375 0
209 219 244 259 304 354 364 374 0
227 232 247 257 302 357 367 372 0
236 241 246 256 301 361 366 371 0
123 128 133 138 143 148 258 308 313 318 323 0
123 128 138 258 308 313 318 333 0
125 130 140 260 310 315 320 350 0
123 128 138 258 308 313 318 368 0
125 130 140 260 310 315 320 370 0
123 133 143 258 308 313 323 328 0
122 132 142 257 307 312 322 332 0
122 132 142 257 307 312 322 362 0
123 133 143 258 308 313 323 363 0
122 152 257 307 312 327 332 0
123 153 258 308 313 328 333 0
122 257 307 312 327 362 0
123 258 308 313 328 368 0
122 257 307 312 332 357 0
123 258 308 313 333 363 0
125 195 260 310 315 340 350 0
125 260 310 315 340 370 0
125 260 310 315 350 360 0
122 222 257 307 312 357 362 0
125 230 260 310 315 360 370 0
123 238 258 308 313 363 368 0
129 134 149 259 309 319 324 344 0
128 133 148 258 308 318 323 348 0
128 133 148 258 308 318 323 358 0
129 134 149 259 309 319 324 359 0
128 183 258 308 318 333 348 0
130 185 260 310 320 335 350 0
128 258 308 318 333 358 0
130 260 310 320 335 370 0
129 189 259 309 319 339 344 0
129 259 309 319 339 359 0
129 259 309 319 344 354 0
130 260 310 320 350 355 0
128 258 308 318 348 368 0
129 204 259 309 319 354 359 0
130 215 260 310 320 355 370 0
128 228 258 308 318 358 368 0
133 168 258 308 323 328 348 0
133 258 308 323 328 358 0
132 177 257 307 322 332 342 0
134 179 259 309 324 334 344 0
134 259 309 324 334 359 0
132 257 307 322 332 372 0
132 257 307 322 342 362 0
134 259 309 324 344 374 0
133 258 308 323 348 363 0
133 223 258 308 323 358 363 0
134 234 259 309 324 359 374 0
132 242 257 307 322 362 372 0
152 162 177 257 307 327 332 342 0
153 168 183 258 308 328 333 348 0
153 258 308 328 333 358 0
152 257 307 327 332 372 0
162 257 307 327 342 362 0
168 258 308 328 348 368 0
228 258 308 328 358 368 0
242 257 307 327 362 372 0
174 179 189 259 309 334 339 344 0
175 185 195 260 310 335 340 350 0
174 259 309 334 339 359 0
175 260 310 335 340 370 0
179 259 309 334 344 354 0
177 257 307 332 342 357 0
185 260 310 335 350 360 0
183 258 308 333 348 363 0
204 259 309 334 354 359 0
223 258 308 333 358 363 0
230 260 310 335 360 370 0
232 257 307 332 357 372 0
189 259 309 339 344 374 0
195 260 310 340 350 355 0
215 260 310 340 355 370 0
234 259 309 339 359 374 0
219 259 309 344 354 374 0
222 257 307 342 357 362 0
205 260 310 350 355 360 0
238 258 308 348 363 368 0
205 215 230 260 310 355 360 370 0
204 219 234 259 309 354 359 374 0
223 228 238 258 308 358 363 368 0
222 232 242 257 307 357 362 372 0
136 141 146 256 311 316 321 326 0
138 143 148 258 313 318 323 343 0
136 141 146 256 311 316 321 351 0
138 143 148 258 313 318 323 353 0
136 166 256 311 316 326 346 0
140 170 260 315 320 330 350 0
140 260 315 320 330 370 0
136 256 311 316 326 371 0
138 178 258 313 318 333 343 0
138 258 313 318 333 353 0
138 258 313 318 343 368 0
136 256 311 316 346 351 0
140 260 315 320 350 375 0
138 213 258 313 318 353 368 0
136 216 256 311 316 351 371 0
140 250 260 315 320 370 375 0
141 161 256 311 321 326 341 0
143 163 258 313 323 328 343 0
143 258 313 323 328 353 0
141 256 311 321 326 366 0
142 172 257 312 322 332 337 0
142 257 312 322 332 367 0
142 257 312 322 337 362 0
141 256 311 321 341 351 0
143 258 313 323 343 363 0
143 208 258 313 323 353 363 0
141 211 256 311 321 351 366 0
142 237 257 312 322 362 367 0
152 157 172 257 312 327 332 337 0
153 163 178 258 313 328 333 343 0
153 258 313 328 333 353 0
152 257 312 327 332 367 0
160 170 195 260 315 330 340 350 0
157 257 312 327 337 362 0
160 260 315 330 340 370 0
161 166 196 256 311 326 341 346 0
163 258 313 328 343 368 0
161 256 311 326 341 371 0
170 260 315 330 350 360 0
166 256 311 326 346 366 0
213 258 313 328 353 368 0
230 260 315 330 360 370 0
237 257 312 327 362 367 0
246 256 311 326 366 371 0
172 257 312 332 337 357 0
178 258 313 333 343 363 0
208 258 313 333 353 363 0
227 257 312 332 357 367 0
195 260 315 340 350 375 0
222 257 312 337 357 362 0
250 260 315 340 370 375 0
196 256 311 341 346 351 0
216 256 311 341 351 371 0
238 258 313 343 363 368 0
211 256 311 346 351 366 0
235 260 315 350 360 375 0
208 213 238 258 313 353 363 368 0
211 216 246 256 311 351 366 371 0
222 227 237 257 312 357 362 367 0
230 235 250 260 315 360 370 375 0
146 156 256 316 321 326 336 0
146 256 316 321 326 361 0
146 256 316 321 336 351 0
148 198 258 318 323 343 348 0
149 199 259 319 324 344 349 0
148 258 318 323 343 358 0
149 259 319 324 344 364 0
148 258 318 323 348 353 0
149 259 319 324 349 359 0
148 203 258 318 323 353 358 0
146 206 256 316 321 351 361 0
149 224 259 319 324 359 364 0
155 170 185 260 320 330 335 350 0
155 260 320 330 335 370 0
156 166 191 256 316 326 336 346 0
156 256 316 326 336 371 0
170 260 320 330 350 355 0
166 256 316 326 346 361 0
215 260 320 330 355 370 0
241 256 316 326 361 371 0
178 183 198 258 318 333 343 348 0
178 258 318 333 343 358 0
183 258 318 333 348 353 0
185 260 320 335 350 375 0
203 258 318 333 353 358 0
250 260 320 335 370 375 0
189 194 199 259 319 339 344 349 0
189 259 319 339 344 364 0
191 256 316 336 346 351 0
194 259 319 339 349 359 0
216 256 316 336 351 371 0
224 259 319 339 359 364 0
199 259 319 344 349 354 0
198 258 318 343 348 368 0
209 259 319 344 354 364 0
228 258 318 343 358 368 0
204 259 319 349 354 359 0
206 256 316 346 351 361 0
213 258 318 348 353 368 0
220 260 320 350 355 375 0
204 209 224 259 319 354 359 364 0
203 213 228 258 318 353 358 368 0
206 216 241 256 316 351 361 371 0
215 220 250 260 320 355 370 375 0
156 161 186 256 321 326 336 341 0
156 256 321 326 336 366 0
163 168 198 258 323 328 343 348 0
163 258 323 328 343 358 0
161 256 321 326 341 361 0
168 258 323 328 348 353 0
203 258 323 328 353 358 0
236 256 321 326 361 366 0
172 177 187 257 322 332 337 342 0
172 257 322 332 337 372 0
179 184 199 259 324 334 344 349 0
179 259 324 334 344 364 0
177 257 322 332 342 367 0
184 259 324 334 349 359 0
224 259 324 334 359 364 0
247 257 322 332 367 372 0
186 256 321 336 341 351 0
187 257 322 337 342 362 0
211 256 321 336 351 366 0
242 257 322 337 362 372 0
198 258 323 343 348 363 0
199 259 324 344 349 374 0
206 256 321 341 351 361 0
223 258 323 343 358 363 0
237 257 322 342 362 367 0
244 259 324 344 364 374 0
208 258 323 348 353 363 0
234 259 324 349 359 374 0
203 208 223 258 323 353 358 363 0
206 211 236 256 321 351 361 366 0
224 234 244 259 324 359 364 374 0
237 242 247 257 322 362 367 372 0
152 157 162 172 177 187 257 327 332 337 342 0
155 160 170 175 185 195 260 330 335 340 350 0
155 160 175 260 330 335 340 370 0
152 157 172 257 327 332 337 372 0
153 163 168 178 183 198 258 328 333 343 348 0
153 163 178 258 328 333 343 358 0
152 162 177 257 327 332 342 367 0
153 168 183 258 328 333 348 353 0
155 170 185 260 330 335 350 360 0
153 203 258 328 333 353 358 0
155 230 260 330 335 360 370 0
152 247 257 327 332 367 372 0
156 161 166 186 191 196 256 326 336 341 346 0
157 162 187 257 327 337 342 362 0
156 161 186 256 326 336 341 371 0
160 170 195 260 330 340 350 355 0
156 166 191 256 326 336 346 366 0
160 215 260 330 340 355 370 0
157 242 257 327 337 362 372 0
156 246 256 326 336 366 371 0
161 166 196 256 326 341 346 361 0
163 168 198 258 328 343 348 368 0
163 228 258 328 343 358 368 0
162 237 257 327 342 362 367 0
161 241 256 326 341 361 371 0
170 205 260 330 350 355 360 0
168 213 258 328 348 353 368 0
166 236 256 326 346 361 366 0
203 213 228 258 328 353 358 368 0
205 215 230 260 330 355 360 370 0
236 241 246 256 326 361 366 371 0
237 242 247 257 327 362 367 372 0
174 179 184 189 194 199 259 334 339 344 349 0
172 177 187 257 332 337 342 357 0
174 179 189 259 334 339 344 364 0
174 184 194 259 334 339 349 359 0
175 185 195 260 335 340 350 375 0
174 224 259 334 339 359 364 0
172 232 257 332 337 357 372 0
175 250 260 335 340 370 375 0
179 184 199 259 334 344 349 354 0
178 183 198 258 333 343 348 363 0
179 209 259 334 344 354 364 0
178 223 258 333 343 358 363 0
177 227 257 332 342 357 367 0
184 204 259 334 349 354 359 0
183 208 258 333 348 353 363 0
185 235 260 335 350 360 375 0
203 208 223 258 333 353 358 363 0
204 209 224 259 334 354 359 364 0
227 232 247 257 332 357 367 372 0
230 235 250 260 335 360 370 375 0
186 191 196 256 336 341 346 351 0
189 194 199 259 339 344 349 374 0
186 216 256 336 341 351 371 0
187 222 257 337 342 357 362 0
189 244 259 339 344 364 374 0
191 211 256 336 346 351 366 0
195 220 260 340 350 355 375 0
194 234 259 339 349 359 374 0
211 216 246 256 336 351 366 371 0
215 220 250 260 340 355 370 375 0
222 232 242 257 337 357 362 372 0
224 234 244 259 339 359 364 374 0
196 206 256 341 346 351 361 0
199 219 259 344 349 354 374 0
198 238 258 343 348 363 368 0
206 216 241 256 341 351 361 371 0
209 219 244 259 344 354 364 374 0
222 227 237 257 342 357 362 367 0
223 228 238 258 343 358 363 368 0
204 219 234 259 349 354 359 374 0
205 220 235 260 350 355 360 375 0
206 211 236 256 346 351 361 366 0
208 213 238 258 348 353 363 368 0
203 208 213 223 228 238 258 353 358 363 368 0
204 209 219 224 234 244 259 354 359 364 374 0
205 215 220 230 235 250 260 355 360 370 375 0
206 211 216 236 241 246 256 351 361 366 371 0
222 227 232 237 242 247 257 357 362 367 372 0
36 41 46 51 261 266 271 276 281 0
40 45 50 70 265 270 275 280 300 0
36 41 46 261 266 271 276 306 0
40 45 50 265 270 275 280 320 0
36 41 46 261 266 271 276 331 0
40 45 50 265 270 275 280 340 0
36 41 46 261 266 271 276 356 0
40 45 50 265 270 275 280 360 0
37 42 47 72 262 267 272 282 287 0
36 41 46 261 266 271 281 301 0
37 42 47 262 267 272 282 317 0
36 41 46 261 266 271 281 326 0
37 42 47 262 267 272 282 347 0
36 41 46 261 266 271 281 351 0
37 42 47 262 267 272 282 352 0
38 43 48 88 263 268 273 288 293 0
38 43 48 263 268 273 288 303 0
37 42 47 262 267 272 287 312 0
38 43 48 263 268 273 288 338 0
37 42 47 262 267 272 287 342 0
37 42 47 262 267 272 287 372 0
38 43 48 263 268 273 288 373 0
39 44 49 99 264 269 274 294 299 0
39 44 49 264 269 274 294 314 0
38 43 48 263 268 273 293 323 0
39 44 49 264 269 274 294 329 0
38 43 48 263 268 273 293 333 0
38 43 48 263 268 273 293 368 0
39 44 49 264 269 274 294 369 0
39 44 49 264 269 274 299 309 0
40 45 50 265 270 275 300 325 0
40 45 50 265 270 275 300 345 0
39 44 49 264 269 274 299 349 0
39 44 49 264 269 274 299 364 0
40 45 50 265 270 275 300 365 0
36 41 46 101 261 266 271 301 306 0
38 43 48 118 263 268 273 303 323 0
36 41 46 261 266 271 301 331 0
38 43 48 263 268 273 303 333 0
36 41 46 261 266 271 301 356 0
38 43 48 263 268 273 303 368 0
39 44 49 124 264 269 274 309 314 0
36 41 46 261 266 271 306 326 0
39 44 49 264 269 274 309 329 0
36 41 46 261 266 271 306 351 0
39 44 49 264 269 274 309 369 0
37 42 47 137 262 267 272 312 317 0
37 42 47 262 267 272 312 347 0
39 44 49 264 269 274 314 349 0
37 42 47 262 267 272 312 352 0
39 44 49 264 269 274 314 364 0
40 45 50 150 265 270 275 320 325 0
37 42 47 262 267 272 317 342 0
40 45 50 265 270 275 320 345 0
40 45 50 265 270 275 320 365 0
37 42 47 262 267 272 317 372 0
38 43 48 263 268 273 323 338 0
40 45 50 265 270 275 325 340 0
40 45 50 265 270 275 325 360 0
38 43 48 263 268 273 323 373 0
36 41 46 151 261 266 271 326 331 0
39 44 49 169 264 269 274 329 349 0
36 41 46 261 266 271 326 356 0
39 44 49 264 269 274 329 364 0
38 43 48 173 263 268 273 333 338 0
36 41 46 261 266 271 331 351 0
38 43 48 263 268 273 333 373 0
40 45 50 190 265 270 275 340 345 0
40 45 50 265 270 275 340 365 0
38 43 48 263 268 273 338 368 0
37 42 47 197 262 267 272 342 347 0
37 42 47 262 267 272 342 352 0
40 45 50 265 270 275 345 360 0
39 44 49 264 269 274 349 369 0
37 42 47 262 267 272 347 372 0
36 41 46 201 261 266 271 351 356 0
37 42 47 217 262 267 272 352 372 0
40 45 50 225 265 270 275 360 365 0
39 44 49 239 264 269 274 364 369 0
38 43 48 248 263 268 273 368 373 0
37 52 57 72 262 267 277 282 287 0
36 51 66 81 261 266 276 281 296 0
37 52 262 267 277 282 317 0
36 51 261 266 276 281 321 0
36 51 261 266 276 281 346 0
37 52 262 267 277 282 347 0
37 52 262 267 277 282 352 0
36 51 261 266 276 281 371 0
37 57 262 267 277 287 312 0
37 57 262 267 277 287 342 0
37 57 262 267 277 287 372 0
40 65 70 100 265 270 280 295 300 0
40 65 265 270 280 295 320 0
40 65 265 270 280 295 340 0
40 65 265 270 280 295 360 0
36 66 261 266 276 296 306 0
40 70 265 270 280 300 315 0
36 66 261 266 276 296 331 0
40 70 265 270 280 300 335 0
40 70 265 270 280 300 355 0
36 66 261 266 276 296 356 0
36 131 261 266 276 306 321 0
36 261 266 276 306 346 0
36 261 266 276 306 371 0
37 137 262 267 277 312 317 0
40 140 265 270 280 315 320 0
40 265 270 280 315 340 0
37 262 267 277 312 347 0
37 262 267 277 312 352 0
40 265 270 280 315 360 0
40 265 270 280 320 335 0
37 262 267 277 317 342 0
40 265 270 280 320 355 0
37 262 267 277 317 372 0
36 261 266 276 321 331 0
36 261 266 276 321 356 0
40 175 265 270 280 335 340 0
36 181 261 266 276 331 346 0
40 265 270 280 335 360 0
36 261 266 276 331 371 0
40 265 270 280 340 355 0
37 197 262 267 277 342 347 0
37 262 267 277 342 352 0
36 261 266 276 346 356 0
37 262 267 277 347 372 0
40 205 265 270 280 355 360 0
37 217 262 267 277 352 372 0
36 231 261 266 276 356 371 0
38 73 78 88 263 268 283 288 293 0
38 73 263 268 283 288 303 0
37 72 262 267 282 287 307 0
37 72 262 267 282 287 337 0
38 73 263 268 283 288 338 0
37 72 262 267 282 287 367 0
38 73 263 268 283 288 373 0
38 78 263 268 283 293 323 0
38 78 263 268 283 293 333 0
38 78 263 268 283 293 368 0
36 81 261 266 281 296 301 0
36 81 261 266 281 296 326 0
36 81 261 266 281 296 351 0
36 116 261 266 281 301 321 0
38 118 263 268 283 303 323 0
38 263 268 283 303 333 0
36 261 266 281 301 346 0
38 263 268 283 303 368 0
36 261 266 281 301 371 0
37 127 262 267 282 307 317 0
37 262 267 282 307 347 0
37 262 267 282 307 352 0
37 262 267 282 317 337 0
37 262 267 282 317 367 0
36 261 266 281 321 326 0
38 263 268 283 323 338 0
36 261 266 281 321 351 0
38 263 268 283 323 373 0
36 166 261 266 281 326 346 0
36 261 266 281 326 371 0
38 173 263 268 283 333 338 0
38 263 268 283 333 373 0
37 192 262 267 282 337 347 0
37 262 267 282 337 352 0
38 263 268 283 338 368 0
36 261 266 281 346 351 0
37 262 267 282 347 367 0
37 212 262 267 282 352 367 0
36 216 261 266 281 351 371 0
38 248 263 268 283 368 373 0
39 89 94 99 264 269 289 294 299 0
39 89 264 269 289 294 314 0
38 88 263 268 288 293 318 0
38 88 263 268 288 293 328 0
39 89 264 269 289 294 329 0
38 88 263 268 288 293 363 0
39 89 264 269 289 294 369 0
39 94 264 269 289 299 309 0
39 94 264 269 289 299 349 0
39 94 264 269 289 299 364 0
38 113 263 268 288 303 318 0
38 263 268 288 303 328 0
38 263 268 288 303 363 0
37 122 262 267 287 307 312 0
39 124 264 269 289 309 314 0
39 264 269 289 309 329 0
37 262 267 287 307 342 0
39 264 269 289 309 369 0
37 262 267 287 307 372 0
37 262 267 287 312 337 0
39 264 269 289 314 349 0
39 264 269 289 314 364 0
37 262 267 287 312 367 0
38 263 268 288 318 338 0
38 263 268 288 318 373 0
38 158 263 268 288 328 338 0
39 169 264 269 289 329 349 0
39 264 269 289 329 364 0
38 263 268 288 328 373 0
37 187 262 267 287 337 342 0
38 263 268 288 338 363 0
37 262 267 287 337 372 0
37 262 267 287 342 367 0
39 264 269 289 349 369 0
39 239 264 269 289 364 369 0
38 243 263 268 288 363 373 0
37 247 262 267 287 367 372 0
39 99 264 269 294 299 304 0
40 100 265 270 295 300 325 0
39 99 264 269 294 299 344 0
40 100 265 270 295 300 345 0
39 99 264 269 294 299 359 0
40 100 265 270 295 300 365 0
39 109 264 269 294 304 314 0
39 264 269 294 304 329 0
39 264 269 294 304 369 0
39 264 269 294 314 344 0
39 264 269 294 314 359 0
38 148 263 268 293 318 323 0
40 150 265 270 295 320 325 0
38 263 268 293 318 333 0
40 265 270 295 320 345 0
40 265 270 295 320 365 0
38 263 268 293 318 368 0
38 263 268 293 323 328 0
40 265 270 295 325 340 0
40 265 270 295 325 360 0
38 263 268 293 323 363 0
38 153 263 268 293 328 333 0
39 164 264 269 294 329 344 0
39 264 269 294 329 359 0
38 263 268 293 328 368 0
38 263 268 293 333 363 0
40 190 265 270 295 340 345 0
40 265 270 295 340 365 0
40 265 270 295 345 360 0
39 264 269 294 344 369 0
40 225 265 270 295 360 365 0
39 229 264 269 294 359 369 0
38 238 263 268 293 363 368 0
36 101 261 266 296 301 306 0
39 104 264 269 299 304 309 0
36 261 266 296 301 331 0
39 264 269 299 304 349 0
36 261 266 296 301 356 0
39 264 269 299 304 364 0
36 261 266 296 306 326 0
39 264 269 299 309 344 0
36 261 266 296 306 351 0
39 264 269 299 309 359 0
40 145 265 270 300 315 325 0
40 265 270 300 315 345 0
40 265 270 300 315 365 0
40 265 270 300 325 335 0
40 265 270 300 325 355 0
36 151 261 266 296 326 331 0
36 261 266 296 326 356 0
40 180 265 270 300 335 345 0
36 261 266 296 331 351 0
40 265 270 300 335 365 0
39 199 264 269 299 344 349 0
40 265 270 300 345 355 0
39 264 269 299 344 364 0
39 264 269 299 349 359 0
36 201 261 266 296 351 356 0
40 210 265 270 300 355 365 0
39 224 264 269 299 359 364 0
39 104 109 124 264 269 304 309 314 0
36 101 116 131 261 266 301 306 321 0
39 104 264 269 304 309 329 0
36 101 261 266 301 306 346 0
39 104 264 269 304 309 369 0
36 101 261 266 301 306 371 0
39 109 264 269 304 314 349 0
39 109 264 269 304 314 364 0
38 113 118 148 263 268 303 318 323 0
38 113 263 268 303 318 333 0
38 113 263 268 303 318 368 0
38 118 263 268 303 323 328 0
36 116 261 266 301 321 331 0
36 116 261 266 301 321 356 0
38 118 263 268 303 323 363 0
38 153 263 268 303 328 333 0
39 169 264 269 304 329 349 0
39 264 269 304 329 364 0
38 263 268 303 328 368 0
36 181 261 266 301 331 346 0
38 263 268 303 333 363 0
36 261 266 301 331 371 0
36 261 266 301 346 356 0
39 264 269 304 349 369 0
36 231 261 266 301 356 371 0
38 238 263 268 303 363 368 0
39 239 264 269 304 364 369 0
37 122 127 137 262 267 307 312 317 0
39 124 264 269 309 314 344 0
37 122 262 267 307 312 347 0
37 122 262 267 307 312 352 0
39 124 264 269 309 314 359 0
37 127 262 267 307 317 342 0
37 127 262 267 307 317 372 0
36 131 261 266 306 321 326 0
36 131 261 266 306 321 351 0
39 164 264 269 309 329 344 0
36 166 261 266 306 326 346 0
39 264 269 309 329 359 0
36 261 266 306 326 371 0
37 197 262 267 307 342 347 0
37 262 267 307 342 352 0
39 264 269 309 344 369 0
36 261 266 306 346 351 0
37 262 267 307 347 372 0
36 216 261 266 306 351 371 0
37 217 262 267 307 352 372 0
39 229 264 269 309 359 369 0
40 140 145 150 265 270 315 320 325 0
37 137 262 267 312 317 337 0
40 140 265 270 315 320 345 0
40 140 265 270 315 320 365 0
37 137 262 267 312 317 367 0
40 145 265 270 315 325 340 0
40 145 265 270 315 325 360 0
40 190 265 270 315 340 345 0
37 192 262 267 312 337 347 0
37 262 267 312 337 352 0
40 265 270 315 340 365 0
39 199 264 269 314 344 349 0
40 265 270 315 345 360 0
39 264 269 314 344 364 0
39 264 269 314 349 359 0
37 262 267 312 347 367 0
37 212 262 267 312 352 367 0
39 224 264 269 314 359 364 0
40 225 265 270 315 360 365 0
40 150 265 270 320 325 335 0
38 148 263 268 318 323 338 0
40 150 265 270 320 325 355 0
38 148 263 268 318 323 373 0
38 173 263 268 318 333 338 0
40 180 265 270 320 335 345 0
40 265 270 320 335 365 0
38 263 268 318 333 373 0
37 187 262 267 317 337 342 0
38 263 268 318 338 368 0
37 262 267 317 337 372 0
40 265 270 320 345 355 0
37 262 267 317 342 367 0
40 210 265 270 320 355 365 0
37 247 262 267 317 367 372 0
38 248 263 268 318 368 373 0
36 151 261 266 321 326 331 0
38 158 263 268 323 328 338 0
36 261 266 321 326 356 0
38 263 268 323 328 373 0
40 175 265 270 325 335 340 0
36 261 266 321 331 351 0
40 265 270 325 335 360 0
40 265 270 325 340 355 0
38 263 268 323 338 363 0
36 201 261 266 321 351 356 0
40 205 265 270 325 355 360 0
38 243 263 268 323 363 373 0
38 153 158 173 263 268 328 333 338 0
36 151 166 181 261 266 326 331 346 0
36 151 261 266 326 331 371 0
38 153 263 268 328 333 373 0
38 158 263 268 328 338 368 0
39 164 169 199 264 269 329 344 349 0
39 164 264 269 329 344 364 0
36 166 261 266 326 346 356 0
39 169 264 269 329 349 359 0
39 224 264 269 329 359 364 0
36 231 261 266 326 356 371 0
38 248 263 268 328 368 373 0
40 175 180 190 265 270 335 340 345 0
38 173 263 268 333 338 363 0
40 175 265 270 335 340 365 0
40 180 265 270 335 345 360 0
36 181 261 266 331 346 351 0
36 216 261 266 331 351 371 0
40 225 265 270 335 360 365 0
38 243 263 268 333 363 373 0
37 187 192 197 262 267 337 342 347 0
37 187 262 267 337 342 352 0
40 190 265 270 340 345 355 0
37 192 262 267 337 347 372 0
40 210 265 270 340 355 365 0
37 217 262 267 337 352 372 0
38 238 263 268 338 363 368 0
37 197 262 267 342 347 367 0
39 199 264 269 344 349 369 0
40 205 265 270 345 355 360 0
37 212 262 267 342 352 367 0
39 239 264 269 344 364 369 0
36 201 261 266 346 351 356 0
39 229 264 269 349 359 369 0
37 247 262 267 347 367 372 0
40 205 210 225 265 270 355 360 365 0
36 201 216 231 261 266 351 356 371 0
37 212 217 247 262 267 352 367 372 0
39 224 229 239 264 269 359 364 369 0
38 238 243 248 263 268 363 368 373 0
41 51 61 76 261 271 276 281 291 0
41 51 261 271 276 281 316 0
41 51 261 271 276 281 341 0
41 51 261 271 276 281 366 0
43 58 63 88 263 273 278 288 293 0
45 60 70 95 265 275 280 290 300 0
43 58 263 273 278 288 303 0
45 60 265 275 280 290 320 0
43 58 263 273 278 288 338 0
45 60 265 275 280 290 340 0
45 60 265 275 280 290 360 0
43 58 263 273 278 288 373 0
41 61 261 271 276 291 306 0
43 63 263 273 278 293 323 0
41 61 261 271 276 291 331 0
43 63 263 273 278 293 333 0
41 61 261 271 276 291 356 0
43 63 263 273 278 293 368 0
45 70 265 275 280 300 310 0
45 70 265 275 280 300 330 0
45 70 265 275 280 300 375 0
43 118 263 273 278 303 323 0
43 263 273 278 303 333 0
43 263 273 278 303 368 0
41 126 261 271 276 306 316 0
45 130 265 275 280 310 320 0
45 265 275 280 310 340 0
41 261 271 276 306 341 0
45 265 275 280 310 360 0
41 261 271 276 306 366 0
45 265 275 280 320 330 0
41 261 271 276 316 331 0
41 261 271 276 316 356 0
45 265 275 280 320 375 0
43 263 273 278 323 338 0
43 263 273 278 323 373 0
45 160 265 275 280 330 340 0
45 265 275 280 330 360 0
43 173 263 273 278 333 338 0
41 176 261 271 276 331 341 0
41 261 271 276 331 366 0
43 263 273 278 333 373 0
43 263 273 278 338 368 0
45 265 275 280 340 375 0
41 261 271 276 341 356 0
41 226 261 271 276 356 366 0
45 235 265 275 280 360 375 0
43 248 263 273 278 368 373 0
42 72 82 92 262 272 282 287 297 0
42 72 262 272 282 287 302 0
42 72 262 272 282 287 332 0
42 72 262 272 282 287 362 0
44 79 84 99 264 274 284 294 299 0
41 76 261 271 281 291 301 0
44 79 264 274 284 294 314 0
41 76 261 271 281 291 326 0
44 79 264 274 284 294 329 0
41 76 261 271 281 291 351 0
44 79 264 274 284 294 369 0
44 84 264 274 284 299 309 0
42 82 262 272 282 297 317 0
42 82 262 272 282 297 347 0
44 84 264 274 284 299 349 0
42 82 262 272 282 297 352 0
44 84 264 274 284 299 364 0
41 111 261 271 281 301 316 0
42 112 262 272 282 302 317 0
41 261 271 281 301 341 0
42 262 272 282 302 347 0
42 262 272 282 302 352 0
41 261 271 281 301 366 0
44 124 264 274 284 309 314 0
44 264 274 284 309 329 0
44 264 274 284 309 369 0
44 264 274 284 314 349 0
44 264 274 284 314 364 0
41 261 271 281 316 326 0
42 262 272 282 317 332 0
41 261 271 281 316 351 0
42 262 272 282 317 362 0
41 161 261 271 281 326 341 0
44 169 264 274 284 329 349 0
44 264 274 284 329 364 0
41 261 271 281 326 366 0
42 182 262 272 282 332 347 0
42 262 272 282 332 352 0
41 261 271 281 341 351 0
42 262 272 282 347 362 0
44 264 274 284 349 369 0
42 207 262 272 282 352 362 0
41 211 261 271 281 351 366 0
44 239 264 274 284 364 369 0
43 88 263 273 288 293 313 0
43 88 263 273 288 293 348 0
43 88 263 273 288 293 358 0
42 92 262 272 287 297 312 0
45 95 265 275 290 300 325 0
42 92 262 272 287 297 342 0
45 95 265 275 290 300 345 0
45 95 265 275 290 300 365 0
42 92 262 272 287 297 372 0
42 107 262 272 287 302 312 0
43 108 263 273 288 303 313 0
42 262 272 287 302 342 0
43 263 273 288 303 348 0
43 263 273 288 303 358 0
42 262 272 287 302 372 0
42 262 272 287 312 332 0
43 263 273 288 313 338 0
42 262 272 287 312 362 0
43 263 273 288 313 373 0
45 150 265 275 290 320 325 0
45 265 275 290 320 345 0
45 265 275 290 320 365 0
45 265 275 290 325 340 0
45 265 275 290 325 360 0
42 177 262 272 287 332 342 0
42 262 272 287 332 372 0
45 190 265 275 290 340 345 0
43 193 263 273 288 338 348 0
43 263 273 288 338 358 0
45 265 275 290 340 365 0
45 265 275 290 345 360 0
42 262 272 287 342 362 0
43 263 273 288 348 373 0
45 225 265 275 290 360 365 0
43 233 263 273 288 358 373 0
42 242 262 272 287 362 372 0
44 99 264 274 294 299 324 0
44 99 264 274 294 299 339 0
44 99 264 274 294 299 354 0
41 101 261 271 291 301 306 0
41 261 271 291 301 331 0
41 261 271 291 301 356 0
41 261 271 291 306 326 0
41 261 271 291 306 351 0
43 143 263 273 293 313 323 0
44 144 264 274 294 314 324 0
43 263 273 293 313 333 0
44 264 274 294 314 339 0
44 264 274 294 314 354 0
43 263 273 293 313 368 0
44 264 274 294 324 329 0
43 263 273 293 323 348 0
43 263 273 293 323 358 0
44 264 274 294 324 369 0
41 151 261 271 291 326 331 0
44 159 264 274 294 329 339 0
44 264 274 294 329 354 0
41 261 271 291 326 356 0
43 183 263 273 293 333 348 0
41 261 271 291 331 351 0
43 263 273 293 333 358 0
44 264 274 294 339 369 0
43 263 273 293 348 368 0
41 201 261 271 291 351 356 0
44 214 264 274 294 354 369 0
43 228 263 273 293 358 368 0
44 134 264 274 299 309 324 0
45 135 265 275 300 310 325 0
44 264 274 299 309 339 0
45 265 275 300 310 345 0
44 264 274 299 309 354 0
45 265 275 300 310 365 0
42 137 262 272 297 312 317 0
42 262 272 297 312 347 0
42 262 272 297 312 352 0
42 262 272 297 317 342 0
42 262 272 297 317 372 0
45 265 275 300 325 330 0
44 264 274 299 324 349 0
44 264 274 299 324 364 0
45 265 275 300 325 375 0
45 165 265 275 300 330 345 0
45 265 275 300 330 365 0
44 194 264 274 299 339 349 0
44 264 274 299 339 364 0
42 197 262 272 297 342 347 0
42 262 272 297 342 352 0
45 265 275 300 345 375 0
44 264 274 299 349 354 0
42 262 272 297 347 372 0
44 209 264 274 299 354 364 0
42 217 262 272 297 352 372 0
45 245 265 275 300 365 375 0
41 101 111 126 261 271 301 306 316 0
41 101 261 271 301 306 341 0
41 101 261 271 301 306 366 0
42 107 112 137 262 272 302 312 317 0
43 108 118 143 263 273 303 313 323 0
43 108 263 273 303 313 333 0
42 107 262 272 302 312 347 0
42 107 262 272 302 312 352 0
43 108 263 273 303 313 368 0
41 111 261 271 301 316 331 0
42 112 262 272 302 317 342 0
41 111 261 271 301 316 356 0
42 112 262 272 302 317 372 0
43 118 263 273 303 323 348 0
43 118 263 273 303 323 358 0
41 176 261 271 301 331 341 0
43 183 263 273 303 333 348 0
43 263 273 303 333 358 0
41 261 271 301 331 366 0
42 197 262 272 302 342 347 0
42 262 272 302 342 352 0
41 261 271 301 341 356 0
43 263 273 303 348 368 0
42 262 272 302 347 372 0
42 217 262 272 302 352 372 0
41 226 261 271 301 356 366 0
43 228 263 273 303 358 368 0
44 124 134 144 264 274 309 314 324 0
44 124 264 274 309 314 339 0
44 124 264 274 309 314 354 0
45 130 135 150 265 275 310 320 325 0
41 126 261 271 306 316 326 0
45 130 265 275 310 320 345 0
41 126 261 271 306 316 351 0
45 130 265 275 310 320 365 0
44 134 264 274 309 324 329 0
45 135 265 275 310 325 340 0
45 135 265 275 310 325 360 0
44 134 264 274 309 324 369 0
44 159 264 274 309 329 339 0
41 161 261 271 306 326 341 0
44 264 274 309 329 354 0
41 261 271 306 326 366 0
45 190 265 275 310 340 345 0
45 265 275 310 340 365 0
44 264 274 309 339 369 0
41 261 271 306 341 351 0
45 265 275 310 345 360 0
41 211 261 271 306 351 366 0
44 214 264 274 309 354 369 0
45 225 265 275 310 360 365 0
42 137 262 272 312 317 332 0
42 137 262 272 312 317 362 0
43 143 263 273 313 323 338 0
44 144 264 274 314 324 349 0
44 144 264 274 314 324 364 0
43 143 263 273 313 323 373 0
43 173 263 273 313 333 338 0
42 182 262 272 312 332 347 0
42 262 272 312 332 352 0
43 263 273 313 333 373 0
44 194 264 274 314 339 349 0
44 264 274 314 339 364 0
43 263 273 313 338 368 0
44 264 274 314 349 354 0
42 262 272 312 347 362 0
42 207 262 272 312 352 362 0
44 209 264 274 314 354 364 0
43 248 263 273 313 368 373 0
45 150 265 275 320 325 330 0
45 150 265 275 320 325 375 0
41 151 261 271 316 326 331 0
45 165 265 275 320 330 345 0
41 261 271 316 326 356 0
45 265 275 320 330 365 0
42 177 262 272 317 332 342 0
41 261 271 316 331 351 0
42 262 272 317 332 372 0
42 262 272 317 342 362 0
45 265 275 320 345 375 0
41 201 261 271 316 351 356 0
42 242 262 272 317 362 372 0
45 245 265 275 320 365 375 0
45 160 265 275 325 330 340 0
44 169 264 274 324 329 349 0
45 265 275 325 330 360 0
44 264 274 324 329 364 0
43 193 263 273 323 338 348 0
43 263 273 323 338 358 0
45 265 275 325 340 375 0
44 264 274 324 349 369 0
43 263 273 323 348 373 0
43 233 263 273 323 358 373 0
45 235 265 275 325 360 375 0
44 239 264 274 324 364 369 0
41 151 161 176 261 271 326 331 341 0
41 151 261 271 326 331 366 0
45 160 165 190 265 275 330 340 345 0
44 159 169 194 264 274 329 339 349 0
44 159 264 274 329 339 364 0
45 160 265 275 330 340 365 0
41 161 261 271 326 341 356 0
45 165 265 275 330 345 360 0
44 169 264 274 329 349 354 0
44 209 264 274 329 354 364 0
45 225 265 275 330 360 365 0
41 226 261 271 326 356 366 0
43 173 183 193 263 273 333 338 348 0
43 173 263 273 333 338 358 0
42 177 182 197 262 272 332 342 347 0
41 176 261 271 331 341 351 0
42 177 262 272 332 342 352 0
42 182 262 272 332 347 372 0
43 183 263 273 333 348 373 0
41 211 261 271 331 351 366 0
42 217 262 272 332 352 372 0
43 233 263 273 333 358 373 0
45 190 265 275 340 345 375 0
43 193 263 273 338 348 368 0
44 194 264 274 339 349 369 0
43 228 263 273 338 358 368 0
44 239 264 274 339 364 369 0
45 245 265 275 340 365 375 0
42 197 262 272 342 347 362 0
41 201 261 271 341 351 356 0
42 207 262 272 342 352 362 0
45 235 265 275 345 360 375 0
44 214 264 274 349 354 369 0
42 242 262 272 347 362 372 0
43 248 263 273 348 368 373 0
41 201 211 226 261 271 351 356 366 0
44 209 214 239 264 274 354 364 369 0
42 207 217 242 262 272 352 362 372 0
45 225 235 245 265 275 360 365 375 0
43 228 233 248 263 273 358 368 373 0
53 58 63 73 78 88 263 278 283 288 293 0
52 57 67 72 82 92 262 277 282 287 297 0
52 57 72 262 277 282 287 302 0
53 58 73 263 278 283 288 303 0
52 57 72 262 277 282 287 332 0
53 58 73 263 278 283 288 338 0
52 57 72 262 277 282 287 362 0
53 58 73 263 278 283 288 373 0
51 61 66 76 81 96 261 276 281 291 296 0
51 61 76 261 276 281 291 321 0
53 63 78 263 278 283 293 323 0
53 63 78 263 278 283 293 333 0
51 61 76 261 276 281 291 346 0
53 63 78 263 278 283 293 368 0
51 61 76 261 276 281 291 371 0
51 66 81 261 276 281 296 316 0
52 67 82 262 277 282 297 317 0
51 66 81 261 276 281 296 341 0
52 67 82 262 277 282 297 347 0
52 67 82 262 277 282 297 352 0
51 66 81 261 276 281 296 366 0
52 112 262 277 282 302 317 0
53 118 263 278 283 303 323 0
53 263 278 283 303 333 0
52 262 277 282 302 347 0
52 262 277 282 302 352 0
53 263 278 283 303 368 0
51 146 261 276 281 316 321 0
52 262 277 282 317 332 0
51 261 276 281 316 346 0
52 262 277 282 317 362 0
51 261 276 281 316 371 0
53 263 278 283 323 338 0
51 261 276 281 321 341 0
51 261 276 281 321 366 0
53 263 278 283 323 373 0
53 173 263 278 283 333 338 0
52 182 262 277 282 332 347 0
52 262 277 282 332 352 0
53 263 278 283 333 373 0
53 263 278 283 338 368 0
51 196 261 276 281 341 346 0
51 261 276 281 341 371 0
52 262 277 282 347 362 0
51 261 276 281 346 366 0
52 207 262 277 282 352 362 0
51 246 261 276 281 366 371 0
53 248 263 278 283 368 373 0
60 65 70 90 95 100 265 280 290 295 300 0
58 63 88 263 278 288 293 318 0
60 65 90 265 280 290 295 320 0
58 63 88 263 278 288 293 328 0
60 65 90 265 280 290 295 340 0
60 65 90 265 280 290 295 360 0
58 63 88 263 278 288 293 363 0
57 67 92 262 277 287 297 312 0
60 70 95 265 280 290 300 315 0
60 70 95 265 280 290 300 335 0
57 67 92 262 277 287 297 342 0
60 70 95 265 280 290 300 355 0
57 67 92 262 277 287 297 372 0
57 107 262 277 287 302 312 0
58 113 263 278 288 303 318 0
58 263 278 288 303 328 0
57 262 277 287 302 342 0
58 263 278 288 303 363 0
57 262 277 287 302 372 0
60 140 265 280 290 315 320 0
57 262 277 287 312 332 0
60 265 280 290 315 340 0
60 265 280 290 315 360 0
57 262 277 287 312 362 0
60 265 280 290 320 335 0
58 263 278 288 318 338 0
60 265 280 290 320 355 0
58 263 278 288 318 373 0
58 158 263 278 288 328 338 0
58 263 278 288 328 373 0
60 175 265 280 290 335 340 0
57 177 262 277 287 332 342 0
60 265 280 290 335 360 0
57 262 277 287 332 372 0
60 265 280 290 340 355 0
58 263 278 288 338 363 0
57 262 277 287 342 362 0
60 205 265 280 290 355 360 0
57 242 262 277 287 362 372 0
58 243 263 278 288 363 373 0
61 66 96 261 276 291 296 306 0
65 70 100 265 280 295 300 310 0
65 70 100 265 280 295 300 330 0
61 66 96 261 276 291 296 331 0
61 66 96 261 276 291 296 356 0
65 70 100 265 280 295 300 375 0
65 130 265 280 295 310 320 0
61 131 261 276 291 306 321 0
65 265 280 295 310 340 0
61 261 276 291 306 346 0
65 265 280 295 310 360 0
61 261 276 291 306 371 0
63 148 263 278 293 318 323 0
65 265 280 295 320 330 0
63 263 278 293 318 333 0
63 263 278 293 318 368 0
65 265 280 295 320 375 0
63 263 278 293 323 328 0
61 261 276 291 321 331 0
61 261 276 291 321 356 0
63 263 278 293 323 363 0
63 153 263 278 293 328 333 0
65 160 265 280 295 330 340 0
65 265 280 295 330 360 0
63 263 278 293 328 368 0
61 181 261 276 291 331 346 0
63 263 278 293 333 363 0
61 261 276 291 331 371 0
65 265 280 295 340 375 0
61 261 276 291 346 356 0
61 231 261 276 291 356 371 0
65 235 265 280 295 360 375 0
63 238 263 278 293 363 368 0
70 125 265 280 300 310 315 0
66 126 261 276 296 306 316 0
70 265 280 300 310 335 0
66 261 276 296 306 341 0
70 265 280 300 310 355 0
66 261 276 296 306 366 0
67 137 262 277 297 312 317 0
70 265 280 300 315 330 0
67 262 277 297 312 347 0
67 262 277 297 312 352 0
70 265 280 300 315 375 0
66 261 276 296 316 331 0
67 262 277 297 317 342 0
66 261 276 296 316 356 0
67 262 277 297 317 372 0
70 155 265 280 300 330 335 0
70 265 280 300 330 355 0
66 176 261 276 296 331 341 0
66 261 276 296 331 366 0
70 265 280 300 335 375 0
67 197 262 277 297 342 347 0
67 262 277 297 342 352 0
66 261 276 296 341 356 0
67 262 277 297 347 372 0
67 217 262 277 297 352 372 0
70 220 265 280 300 355 375 0
66 226 261 276 296 356 366 0
107 112 137 262 277 302 312 317 0
107 262 277 302 312 347 0
107 262 277 302 312 352 0
113 118 148 263 278 303 318 323 0
113 263 278 303 318 333 0
112 262 277 302 317 342 0
113 263 278 303 318 368 0
112 262 277 302 317 372 0
118 263 278 303 323 328 0
118 263 278 303 323 363 0
153 263 278 303 328 333 0
263 278 303 328 368 0
263 278 303 333 363 0
197 262 277 302 342 347 0
262 277 302 342 352 0
262 277 302 347 372 0
217 262 277 302 352 372 0
238 263 278 303 363 368 0
125 130 140 265 280 310 315 320 0
125 265 280 310 315 340 0
125 265 280 310 315 360 0
126 131 146 261 276 306 316 321 0
130 265 280 310 320 335 0
126 261 276 306 316 346 0
130 265 280 310 320 355 0
126 261 276 306 316 371 0
131 261 276 306 321 341 0
131 261 276 306 321 366 0
175 265 280 310 335 340 0
265 280 310 335 360 0
265 280 310 340 355 0
196 261 276 306 341 346 0
261 276 306 341 371 0
261 276 306 346 366 0
205 265 280 310 355 360 0
246 261 276 306 366 371 0
140 265 280 315 320 330 0
137 262 277 312 317 332 0
137 262 277 312 317 362 0
140 265 280 315 320 375 0
160 265 280 315 330 340 0
265 280 315 330 360 0
182 262 277 312 332 347 0
262 277 312 332 352 0
265 280 315 340 375 0
262 277 312 347 362 0
207 262 277 312 352 362 0
235 265 280 315 360 375 0
146 261 276 316 321 331 0
148 263 278 318 323 338 0
146 261 276 316 321 356 0
148 263 278 318 323 373 0
155 265 280 320 330 335 0
265 280 320 330 355 0
173 263 278 318 333 338 0
177 262 277 317 332 342 0
181 261 276 316 331 346 0
261 276 316 331 371 0
262 277 317 332 372 0
263 278 318 333 373 0
265 280 320 335 375 0
263 278 318 338 368 0
262 277 317 342 362 0
261 276 316 346 356 0
220 265 280 320 355 375 0
231 261 276 316 356 371 0
242 262 277 317 362 372 0
248 263 278 318 368 373 0
158 263 278 323 328 338 0
263 278 323 328 373 0
176 261 276 321 331 341 0
261 276 321 331 366 0
263 278 323 338 363 0
261 276 321 341 356 0
226 261 276 321 356 366 0
243 263 278 323 363 373 0
153 158 173 263 278 328 333 338 0
155 160 175 265 280 330 335 340 0
155 265 280 330 335 360 0
153 263 278 328 333 373 0
160 265 280 330 340 355 0
158 263 278 328 338 368 0
205 265 280 330 355 360 0
248 263 278 328 368 373 0
173 263 278 333 338 363 0
175 265 280 335 340 375 0
176 181 196 261 276 331 341 346 0
177 182 197 262 277 332 342 347 0
177 262 277 332 342 352 0
176 261 276 331 341 371 0
181 261 276 331 346 366 0
182 262 277 332 347 372 0
217 262 277 332 352 372 0
235 265 280 335 360 375 0
243 263 278 333 363 373 0
246 261 276 331 366 371 0
220 265 280 340 355 375 0
238 263 278 338 363 368 0
196 261 276 341 346 356 0
197 262 277 342 347 362 0
207 262 277 342 352 362 0
231 261 276 341 356 371 0
226 261 276 346 356 366 0
242 262 277 347 362 372 0
205 220 235 265 280 355 360 375 0
207 217 242 262 277 352 362 372 0
226 231 246 261 276 356 366 371 0
238 243 248 263 278 363 368 373 0
74 79 84 89 94 99 264 284 289 294 299 0
73 78 88 263 283 288 293 313 0
74 79 89 264 284 289 294 314 0
74 79 89 264 284 289 294 329 0
73 78 88 263 283 288 293 348 0
73 78 88 263 283 288 293 358 0
74 79 89 264 284 289 294 369 0
72 82 92 262 282 287 297 307 0
74 84 94 264 284 289 299 309 0
72 82 92 262 282 287 297 337 0
74 84 94 264 284 289 299 349 0
74 84 94 264 284 289 299 364 0
72 82 92 262 282 287 297 367 0
72 102 262 282 287 302 307 0
73 108 263 283 288 303 313 0
72 262 282 287 302 337 0
73 263 283 288 303 348 0
73 263 283 288 303 358 0
72 262 282 287 302 367 0
74 124 264 284 289 309 314 0
74 264 284 289 309 329 0
72 262 282 287 307 332 0
72 262 282 287 307 362 0
74 264 284 289 309 369 0
73 263 283 288 313 338 0
74 264 284 289 314 349 0
74 264 284 289 314 364 0
73 263 283 288 313 373 0
74 169 264 284 289 329 349 0
74 264 284 289 329 364 0
72 172 262 282 287 332 337 0
72 262 282 287 332 367 0
73 193 263 283 288 338 348 0
73 263 283 288 338 358 0
72 262 282 287 337 362 0
74 264 284 289 349 369 0
73 263 283 288 348 373 0
73 233 263 283 288 358 373 0
72 237 262 282 287 362 367 0
74 239 264 284 289 364 369 0
76 81 96 261 281 291 296 301 0
79 84 99 264 284 294 299 304 0
76 81 96 261 281 291 296 326 0
79 84 99 264 284 294 299 344 0
76 81 96 261 281 291 296 351 0
79 84 99 264 284 294 299 359 0
79 109 264 284 294 304 314 0
76 116 261 281 291 301 321 0
79 264 284 294 304 329 0
76 261 281 291 301 346 0
79 264 284 294 304 369 0
76 261 281 291 301 371 0
78 143 263 283 293 313 323 0
78 263 283 293 313 333 0
79 264 284 294 314 344 0
79 264 284 294 314 359 0
78 263 283 293 313 368 0
76 261 281 291 321 326 0
78 263 283 293 323 348 0
76 261 281 291 321 351 0
78 263 283 293 323 358 0
79 164 264 284 294 329 344 0
76 166 261 281 291 326 346 0
79 264 284 294 329 359 0
76 261 281 291 326 371 0
78 183 263 283 293 333 348 0
78 263 283 293 333 358 0
79 264 284 294 344 369 0
76 261 281 291 346 351 0
78 263 283 293 348 368 0
76 216 261 281 291 351 371 0
78 228 263 283 293 358 368 0
79 229 264 284 294 359 369 0
84 104 264 284 299 304 309 0
81 111 261 281 296 301 316 0
81 261 281 296 301 341 0
84 264 284 299 304 349 0
84 264 284 299 304 364 0
81 261 281 296 301 366 0
82 127 262 282 297 307 317 0
84 264 284 299 309 344 0
82 262 282 297 307 347 0
82 262 282 297 307 352 0
84 264 284 299 309 359 0
81 261 281 296 316 326 0
82 262 282 297 317 337 0
81 261 281 296 316 351 0
82 262 282 297 317 367 0
81 161 261 281 296 326 341 0
81 261 281 296 326 366 0
82 192 262 282 297 337 347 0
82 262 282 297 337 352 0
84 199 264 284 299 344 349 0
81 261 281 296 341 351 0
84 264 284 299 344 364 0
84 264 284 299 349 359 0
82 262 282 297 347 367 0
81 211 261 281 296 351 366 0
82 212 262 282 297 352 367 0
84 224 264 284 299 359 364 0
104 109 124 264 284 304 309 314 0
102 112 127 262 282 302 307 317 0
104 264 284 304 309 329 0
102 262 282 302 307 347 0
102 262 282 302 307 352 0
104 264 284 304 309 369 0
108 118 143 263 283 303 313 323 0
108 263 283 303 313 333 0
109 264 284 304 314 349 0
109 264 284 304 314 364 0
108 263 283 303 313 368 0
111 116 146 261 281 301 316 321 0
112 262 282 302 317 337 0
111 261 281 301 316 346 0
112 262 282 302 317 367 0
111 261 281 301 316 371 0
116 261 281 301 321 341 0
118 263 283 303 323 348 0
118 263 283 303 323 358 0
116 261 281 301 321 366 0
169 264 284 304 329 349 0
264 284 304 329 364 0
183 263 283 303 333 348 0
263 283 303 333 358 0
192 262 282 302 337 347 0
262 282 302 337 352 0
196 261 281 301 341 346 0
261 281 301 341 371 0
261 281 301 346 366 0
262 282 302 347 367 0
263 283 303 348 368 0
264 284 304 349 369 0
212 262 282 302 352 367 0
228 263 283 303 358 368 0
239 264 284 304 364 369 0
246 261 281 301 366 371 0
124 264 284 309 314 344 0
124 264 284 309 314 359 0
127 262 282 307 317 332 0
127 262 282 307 317 362 0
164 264 284 309 329 344 0
264 284 309 329 359 0
182 262 282 307 332 347 0
262 282 307 332 352 0
264 284 309 344 369 0
262 282 307 347 362 0
207 262 282 307 352 362 0
229 264 284 309 359 369 0
143 263 283 313 323 338 0
143 263 283 313 323 373 0
173 263 283 313 333 338 0
263 283 313 333 373 0
263 283 313 338 368 0
199 264 284 314 344 349 0
264 284 314 344 364 0
264 284 314 349 359 0
224 264 284 314 359 364 0
248 263 283 313 368 373 0
146 261 281 316 321 326 0
146 261 281 316 321 351 0
166 261 281 316 326 346 0
261 281 316 326 371 0
172 262 282 317 332 337 0
262 282 317 332 367 0
262 282 317 337 362 0
261 281 316 346 351 0
216 261 281 316 351 371 0
237 262 282 317 362 367 0
161 261 281 321 326 341 0
261 281 321 326 366 0
193 263 283 323 338 348 0
263 283 323 338 358 0
261 281 321 341 351 0
263 283 323 348 373 0
211 261 281 321 351 366 0
233 263 283 323 358 373 0
161 166 196 261 281 326 341 346 0
164 169 199 264 284 329 344 349 0
164 264 284 329 344 364 0
161 261 281 326 341 371 0
169 264 284 329 349 359 0
166 261 281 326 346 366 0
224 264 284 329 359 364 0
246 261 281 326 366 371 0
172 182 192 262 282 332 337 347 0
173 183 193 263 283 333 338 348 0
172 262 282 332 337 352 0
173 263 283 333 338 358 0
182 262 282 332 347 367 0
183 263 283 333 348 373 0
212 262 282 332 352 367 0
233 263 283 333 358 373 0
192 262 282 337 347 362 0
193 263 283 338 348 368 0
207 262 282 337 352 362 0
228 263 283 338 358 368 0
196 261 281 341 346 351 0
199 264 284 344 349 369 0
216 261 281 341 351 371 0
239 264 284 344 364 369 0
211 261 281 346 351 366 0
229 264 284 349 359 369 0
237 262 282 347 362 367 0
248 263 283 348 368 373 0
207 212 237 262 282 352 362 367 0
211 216 246 261 281 351 366 371 0
224 229 239 264 284 359 364 369 0
228 233 248 263 283 358 368 373 0
89 94 99 264 289 294 299 324 0
90 95 100 265 290 295 300 325 0
89 94 99 264 289 294 299 339 0
90 95 100 265 290 295 300 345 0
89 94 99 264 289 294 299 354 0
90 95 100 265 290 295 300 365 0
88 138 263 288 293 313 318 0
89 144 264 289 294 314 324 0
88 263 288 293 313 328 0
89 264 289 294 314 339 0
89 264 289 294 314 354 0
88 263 288 293 313 363 0
90 150 265 290 295 320 325 0
90 265 290 295 320 345 0
88 263 288 293 318 348 0
88 263 288 293 318 358 0
90 265 290 295 320 365 0
89 264 289 294 324 329 0
90 265 290 295 325 340 0
90 265 290 295 325 360 0
89 264 289 294 324 369 0
89 159 264 289 294 329 339 0
88 168 263 288 293 328 348 0
89 264 289 294 329 354 0
88 263 288 293 328 358 0
90 190 265 290 295 340 345 0
90 265 290 295 340 365 0
89 264 289 294 339 369 0
90 265 290 295 345 360 0
88 263 288 293 348 363 0
89 214 264 289 294 354 369 0
88 223 263 288 293 358 363 0
90 225 265 290 295 360 365 0
92 122 262 287 297 307 312 0
94 134 264 289 299 309 324 0
94 264 289 299 309 339 0
92 262 287 297 307 342 0
94 264 289 299 309 354 0
92 262 287 297 307 372 0
95 145 265 290 300 315 325 0
92 262 287 297 312 337 0
95 265 290 300 315 345 0
95 265 290 300 315 365 0
92 262 287 297 312 367 0
95 265 290 300 325 335 0
94 264 289 299 324 349 0
95 265 290 300 325 355 0
94 264 289 299 324 364 0
95 180 265 290 300 335 345 0
95 265 290 300 335 365 0
92 187 262 287 297 337 342 0
94 194 264 289 299 339 349 0
94 264 289 299 339 364 0
92 262 287 297 337 372 0
95 265 290 300 345 355 0
92 262 287 297 342 367 0
94 264 289 299 349 354 0
94 209 264 289 299 354 364 0
95 210 265 290 300 355 365 0
92 247 262 287 297 367 372 0
102 107 122 262 287 302 307 312 0
102 262 287 302 307 342 0
102 262 287 302 307 372 0
108 113 138 263 288 303 313 318 0
108 263 288 303 313 328 0
107 262 287 302 312 337 0
108 263 288 303 313 363 0
107 262 287 302 312 367 0
113 263 288 303 318 348 0
113 263 288 303 318 358 0
168 263 288 303 328 348 0
263 288 303 328 358 0
187 262 287 302 337 342 0
262 287 302 337 372 0
262 287 302 342 367 0
263 288 303 348 363 0
223 263 288 303 358 363 0
247 262 287 302 367 372 0
124 134 144 264 289 309 314 324 0
122 262 287 307 312 332 0
124 264 289 309 314 339 0
124 264 289 309 314 354 0
122 262 287 307 312 362 0
134 264 289 309 324 329 0
134 264 289 309 324 369 0
159 264 289 309 329 339 0
264 289 309 329 354 0
177 262 287 307 332 342 0
262 287 307 332 372 0
264 289 309 339 369 0
262 287 307 342 362 0
214 264 289 309 354 369 0
242 262 287 307 362 372 0
140 145 150 265 290 315 320 325 0
138 263 288 313 318 338 0
140 265 290 315 320 345 0
140 265 290 315 320 365 0
138 263 288 313 318 373 0
145 265 290 315 325 340 0
144 264 289 314 324 349 0
145 265 290 315 325 360 0
144 264 289 314 324 364 0
158 263 288 313 328 338 0
263 288 313 328 373 0
172 262 287 312 332 337 0
262 287 312 332 367 0
190 265 290 315 340 345 0
194 264 289 314 339 349 0
262 287 312 337 362 0
263 288 313 338 363 0
264 289 314 339 364 0
265 290 315 340 365 0
265 290 315 345 360 0
264 289 314 349 354 0
209 264 289 314 354 364 0
225 265 290 315 360 365 0
237 262 287 312 362 367 0
243 263 288 313 363 373 0
150 265 290 320 325 335 0
150 265 290 320 325 355 0
180 265 290 320 335 345 0
265 290 320 335 365 0
193 263 288 318 338 348 0
263 288 318 338 358 0
265 290 320 345 355 0
263 288 318 348 373 0
210 265 290 320 355 365 0
233 263 288 318 358 373 0
169 264 289 324 329 349 0
264 289 324 329 364 0
175 265 290 325 335 340 0
265 290 325 335 360 0
265 290 325 340 355 0
264 289 324 349 369 0
205 265 290 325 355 360 0
239 264 289 324 364 369 0
158 168 193 263 288 328 338 348 0
159 169 194 264 289 329 339 349 0
158 263 288 328 338 358 0
159 264 289 329 339 364 0
169 264 289 329 349 354 0
168 263 288 328 348 373 0
209 264 289 329 354 364 0
233 263 288 328 358 373 0
172 177 187 262 287 332 337 342 0
175 180 190 265 290 335 340 345 0
175 265 290 335 340 365 0
172 262 287 332 337 372 0
180 265 290 335 345 360 0
177 262 287 332 342 367 0
225 265 290 335 360 365 0
247 262 287 332 367 372 0
190 265 290 340 345 355 0
187 262 287 337 342 362 0
193 263 288 338 348 363 0
194 264 289 339 349 369 0
210 265 290 340 355 365 0
223 263 288 338 358 363 0
239 264 289 339 364 369 0
242 262 287 337 362 372 0
205 265 290 345 355 360 0
237 262 287 342 362 367 0
214 264 289 349 354 369 0
243 263 288 348 363 373 0
205 210 225 265 290 355 360 365 0
209 214 239 264 289 354 364 369 0
223 233 243 263 288 358 363 373 0
237 242 247 262 287 362 367 372 0
96 101 261 291 296 301 306 0
99 119 264 294 299 304 324 0
96 261 291 296 301 331 0
99 264 294 299 304 339 0
99 264 294 299 304 354 0
96 261 291 296 301 356 0
100 135 265 295 300 310 325 0
96 261 291 296 306 326 0
100 265 295 300 310 345 0
96 261 291 296 306 351 0
100 265 295 300 310 365 0
100 265 295 300 325 330 0
99 264 294 299 324 344 0
99 264 294 299 324 359 0
100 265 295 300 325 375 0
96 151 261 291 296 326 331 0
100 165 265 295 300 330 345 0
96 261 291 296 326 356 0
100 265 295 300 330 365 0
96 261 291 296 331 351 0
99 189 264 294 299 339 344 0
99 264 294 299 339 359 0
99 264 294 299 344 354 0
100 265 295 300 345 375 0
96 201 261 291 296 351 356 0
99 204 264 294 299 354 359 0
100 245 265 295 300 365 375 0
101 116 131 261 291 301 306 321 0
101 261 291 301 306 346 0
101 261 291 301 306 371 0
109 119 144 264 294 304 314 324 0
109 264 294 304 314 339 0
109 264 294 304 314 354 0
119 264 294 304 324 329 0
116 261 291 301 321 331 0
116 261 291 301 321 356 0
119 264 294 304 324 369 0
159 264 294 304 329 339 0
264 294 304 329 354 0
181 261 291 301 331 346 0
261 291 301 331 371 0
264 294 304 339 369 0
261 291 301 346 356 0
214 264 294 304 354 369 0
231 261 291 301 356 371 0
130 135 150 265 295 310 320 325 0
130 265 295 310 320 345 0
130 265 295 310 320 365 0
131 261 291 306 321 326 0
135 265 295 310 325 340 0
131 261 291 306 321 351 0
135 265 295 310 325 360 0
166 261 291 306 326 346 0
261 291 306 326 371 0
190 265 295 310 340 345 0
265 295 310 340 365 0
265 295 310 345 360 0
261 291 306 346 351 0
216 261 291 306 351 371 0
225 265 295 310 360 365 0
138 143 148 263 293 313 318 323 0
138 263 293 313 318 333 0
138 263 293 313 318 368 0
143 263 293 313 323 328 0
144 264 294 314 324 344 0
144 264 294 314 324 359 0
143 263 293 313 323 363 0
153 263 293 313 328 333 0
263 293 313 328 368 0
263 293 313 333 363 0
189 264 294 314 339 344 0
264 294 314 339 359 0
264 294 314 344 354 0
204 264 294 314 354 359 0
238 263 293 313 363 368 0
150 265 295 320 325 330 0
148 263 293 318 323 348 0
148 263 293 318 323 358 0
150 265 295 320 325 375 0
165 265 295 320 330 345 0
265 295 320 330 365 0
183 263 293 318 333 348 0
263 293 318 333 358 0
265 295 320 345 375 0
263 293 318 348 368 0
228 263 293 318 358 368 0
245 265 295 320 365 375 0
151 261 291 321 326 331 0
160 265 295 325 330 340 0
164 264 294 324 329 344 0
168 263 293 323 328 348 0
261 291 321 326 356 0
263 293 323 328 358 0
264 294 324 329 359 0
265 295 325 330 360 0
261 291 321 331 351 0
265 295 325 340 375 0
264 294 324 344 369 0
263 293 323 348 363 0
201 261 291 321 351 356 0
223 263 293 323 358 363 0
229 264 294 324 359 369 0
235 265 295 325 360 375 0
151 166 181 261 291 326 331 346 0
153 168 183 263 293 328 333 348 0
153 263 293 328 333 358 0
151 261 291 326 331 371 0
159 164 189 264 294 329 339 344 0
160 165 190 265 295 330 340 345 0
159 264 294 329 339 359 0
160 265 295 330 340 365 0
164 264 294 329 344 354 0
165 265 295 330 345 360 0
166 261 291 326 346 356 0
168 263 293 328 348 368 0
204 264 294 329 354 359 0
225 265 295 330 360 365 0
228 263 293 328 358 368 0
231 261 291 326 356 371 0
181 261 291 331 346 351 0
183 263 293 333 348 363 0
216 261 291 331 351 371 0
223 263 293 333 358 363 0
189 264 294 339 344 369 0
190 265 295 340 345 375 0
229 264 294 339 359 369 0
245 265 295 340 365 375 0
214 264 294 344 354 369 0
235 265 295 345 360 375 0
201 261 291 346 351 356 0
238 263 293 348 363 368 0
204 214 229 264 294 354 359 369 0
201 216 231 261 291 351 356 371 0
223 228 238 263 293 358 363 368 0
225 235 245 265 295 360 365 375 0
101 111 126 261 296 301 306 316 0
104 119 134 264 299 304 309 324 0
104 264 299 304 309 339 0
101 261 296 301 306 341 0
104 264 299 304 309 354 0
101 261 296 301 306 366 0
111 261 296 301 316 331 0
111 261 296 301 316 356 0
119 264 299 304 324 349 0
119 264 299 304 324 364 0
176 261 296 301 331 341 0
261 296 301 331 366 0
194 264 299 304 339 349 0
264 299 304 339 364 0
261 296 301 341 356 0
264 299 304 349 354 0
209 264 299 304 354 364 0
226 261 296 301 356 366 0
122 127 137 262 297 307 312 317 0
125 135 145 265 300 310 315 325 0
125 265 300 310 315 345 0
122 262 297 307 312 347 0
122 262 297 307 312 352 0
125 265 300 310 315 365 0
126 261 296 306 316 326 0
127 262 297 307 317 342 0
126 261 296 306 316 351 0
127 262 297 307 317 372 0
135 265 300 310 325 335 0
134 264 299 309 324 344 0
135 265 300 310 325 355 0
134 264 299 309 324 359 0
161 261 296 306 326 341 0
261 296 306 326 366 0
180 265 300 310 335 345 0
265 300 310 335 365 0
189 264 299 309 339 344 0
264 299 309 339 359 0
197 262 297 307 342 347 0
261 296 306 341 351 0
262 297 307 342 352 0
264 299 309 344 354 0
265 300 310 345 355 0
262 297 307 347 372 0
204 264 299 309 354 359 0
210 265 300 310 355 365 0
211 261 296 306 351 366 0
217 262 297 307 352 372 0
137 262 297 312 317 337 0
137 262 297 312 317 367 0
145 265 300 315 325 330 0
145 265 300 315 325 375 0
165 265 300 315 330 345 0
265 300 315 330 365 0
192 262 297 312 337 347 0
262 297 312 337 352 0
265 300 315 345 375 0
262 297 312 347 367 0
212 262 297 312 352 367 0
245 265 300 315 365 375 0
151 261 296 316 326 331 0
261 296 316 326 356 0
261 296 316 331 351 0
187 262 297 317 337 342 0
262 297 317 337 372 0
262 297 317 342 367 0
201 261 296 316 351 356 0
247 262 297 317 367 372 0
155 265 300 325 330 335 0
265 300 325 330 355 0
265 300 325 335 375 0
199 264 299 324 344 349 0
264 299 324 344 364 0
264 299 324 349 359 0
220 265 300 325 355 375 0
224 264 299 324 359 364 0
151 161 176 261 296 326 331 341 0
155 165 180 265 300 330 335 345 0
155 265 300 330 335 365 0
151 261 296 326 331 366 0
165 265 300 330 345 355 0
161 261 296 326 341 356 0
210 265 300 330 355 365 0
226 261 296 326 356 366 0
176 261 296 331 341 351 0
180 265 300 335 345 375 0
211 261 296 331 351 366 0
245 265 300 335 365 375 0
187 192 197 262 297 337 342 347 0
189 194 199 264 299 339 344 349 0
187 262 297 337 342 352 0
189 264 299 339 344 364 0
194 264 299 339 349 359 0
192 262 297 337 347 372 0
217 262 297 337 352 372 0
224 264 299 339 359 364 0
199 264 299 344 349 354 0
197 262 297 342 347 367 0
201 261 296 341 351 356 0
209 264 299 344 354 364 0
212 262 297 342 352 367 0
220 265 300 345 355 375 0
204 264 299 349 354 359 0
247 262 297 347 367 372 0
204 209 224 264 299 354 359 364 0
201 211 226 261 296 351 356 366 0
210 220 245 265 300 355 365 375 0
212 217 247 262 297 352 367 372 0
102 107 112 122 127 137 262 302 307 312 317 0
104 109 119 124 134 144 264 304 309 314 324 0
104 109 124 264 304 309 314 339 0
102 107 122 262 302 307 312 347 0
102 107 122 262 302 307 312 352 0
104 109 124 264 304 309 314 354 0
101 111 116 126 131 146 261 301 306 316 321 0
102 112 127 262 302 307 317 342 0
101 111 126 261 301 306 316 346 0
101 111 126 261 301 306 316 371 0
102 112 127 262 302 307 317 372 0
104 119 134 264 304 309 324 329 0
101 116 131 261 301 306 321 341 0
101 116 131 261 301 306 321 366 0
104 119 134 264 304 309 324 369 0
104 159 264 304 309 329 339 0
104 264 304 309 329 354 0
104 264 304 309 339 369 0
101 196 261 301 306 341 346 0
102 197 262 302 307 342 347 0
102 262 302 307 342 352 0
101 261 301 306 341 371 0
101 261 301 306 346 366 0
102 262 302 307 347 372 0
104 214 264 304 309 354 369 0
102 217 262 302 307 352 372 0
101 246 261 301 306 366 371 0
108 113 118 138 143 148 263 303 313 318 323 0
108 113 138 263 303 313 318 333 0
107 112 137 262 302 312 317 337 0
107 112 137 262 302 312 317 367 0
108 113 138 263 303 313 318 368 0
108 118 143 263 303 313 323 328 0
109 119 144 264 304 314 324 349 0
108 118 143 263 303 313 323 363 0
109 119 144 264 304 314 324 364 0
108 153 263 303 313 328 333 0
108 263 303 313 328 368 0
108 263 303 313 333 363 0
107 192 262 302 312 337 347 0
109 194 264 304 314 339 349 0
107 262 302 312 337 352 0
109 264 304 314 339 364 0
109 264 304 314 349 354 0
107 262 302 312 347 367 0
109 209 264 304 314 354 364 0
107 212 262 302 312 352 367 0
108 238 263 303 313 363 368 0
111 116 146 261 301 316 321 331 0
113 118 148 263 303 318 323 348 0
111 116 146 261 301 316 321 356 0
113 118 148 263 303 318 323 358 0
111 181 261 301 316 331 346 0
113 183 263 303 318 333 348 0
113 263 303 318 333 358 0
111 261 301 316 331 371 0
112 187 262 302 317 337 342 0
112 262 302 317 337 372 0
112 262 302 317 342 367 0
111 261 301 316 346 356 0
113 263 303 318 348 368 0
113 228 263 303 318 358 368 0
111 231 261 301 316 356 371 0
112 247 262 302 317 367 372 0
118 168 263 303 323 328 348 0
119 169 264 304 324 329 349 0
118 263 303 323 328 358 0
119 264 304 324 329 364 0
116 176 261 301 321 331 341 0
116 261 301 321 331 366 0
116 261 301 321 341 356 0
118 263 303 323 348 363 0
119 264 304 324 349 369 0
118 223 263 303 323 358 363 0
116 226 261 301 321 356 366 0
119 239 264 304 324 364 369 0
153 168 183 263 303 328 333 348 0
153 263 303 328 333 358 0
159 169 194 264 304 329 339 349 0
159 264 304 329 339 364 0
169 264 304 329 349 354 0
168 263 303 328 348 368 0
209 264 304 329 354 364 0
228 263 303 328 358 368 0
176 181 196 261 301 331 341 346 0
176 261 301 331 341 371 0
183 263 303 333 348 363 0
181 261 301 331 346 366 0
223 263 303 333 358 363 0
246 261 301 331 366 371 0
187 192 197 262 302 337 342 347 0
187 262 302 337 342 352 0
194 264 304 339 349 369 0
192 262 302 337 347 372 0
217 262 302 337 352 372 0
239 264 304 339 364 369 0
196 261 301 341 346 356 0
197 262 302 342 347 367 0
212 262 302 342 352 367 0
231 261 301 341 356 371 0
214 264 304 349 354 369 0
226 261 301 346 356 366 0
238 263 303 348 363 368 0
247 262 302 347 367 372 0
209 214 239 264 304 354 364 369 0
212 217 247 262 302 352 367 372 0
223 228 238 263 303 358 363 368 0
226 231 246 261 301 356 366 371 0
125 130 135 140 145 150 265 310 315 320 325 0
122 127 137 262 307 312 317 332 0
125 130 140 265 310 315 320 345 0
122 127 137 262 307 312 317 362 0
125 130 140 265 310 315 320 365 0
125 135 145 265 310 315 325 340 0
124 134 144 264 309 314 324 344 0
124 134 144 264 309 314 324 359 0
125 135 145 265 310 315 325 360 0
122 182 262 307 312 332 347 0
122 262 307 312 332 352 0
124 189 264 309 314 339 344 0
125 190 265 310 315 340 345 0
124 264 309 314 339 359 0
125 265 310 315 340 365 0
124 264 309 314 344 354 0
125 265 310 315 345 360 0
122 262 307 312 347 362 0
124 204 264 309 314 354 359 0
122 207 262 307 312 352 362 0
125 225 265 310 315 360 365 0
126 131 146 261 306 316 321 326 0
130 135 150 265 310 320 325 335 0
126 131 146 261 306 316 321 351 0
130 135 150 265 310 320 325 355 0
126 166 261 306 316 326 346 0
126 261 306 316 326 371 0
127 177 262 307 317 332 342 0
130 180 265 310 320 335 345 0
130 265 310 320 335 365 0
127 262 307 317 332 372 0
130 265 310 320 345 355 0
127 262 307 317 342 362 0
126 261 306 316 346 351 0
130 210 265 310 320 355 365 0
126 216 261 306 316 351 371 0
127 242 262 307 317 362 372 0
131 161 261 306 321 326 341 0
134 164 264 309 324 329 344 0
134 264 309 324 329 359 0
131 261 306 321 326 366 0
135 175 265 310 325 335 340 0
135 265 310 325 335 360 0
135 265 310 325 340 355 0
131 261 306 321 341 351 0
134 264 309 324 344 369 0
135 205 265 310 325 355 360 0
131 211 261 306 321 351 366 0
134 229 264 309 324 359 369 0
159 164 189 264 309 329 339 344 0
159 264 309 329 339 359 0
161 166 196 261 306 326 341 346 0
164 264 309 329 344 354 0
161 261 306 326 341 371 0
166 261 306 326 346 366 0
204 264 309 329 354 359 0
246 261 306 326 366 371 0
175 180 190 265 310 335 340 345 0
175 265 310 335 340 365 0
177 182 197 262 307 332 342 347 0
177 262 307 332 342 352 0
180 265 310 335 345 360 0
182 262 307 332 347 372 0
217 262 307 332 352 372 0
225 265 310 335 360 365 0
190 265 310 340 345 355 0
189 264 309 339 344 369 0
210 265 310 340 355 365 0
229 264 309 339 359 369 0
196 261 306 341 346 351 0
197 262 307 342 347 362 0
205 265 310 345 355 360 0
207 262 307 342 352 362 0
214 264 309 344 354 369 0
216 261 306 341 351 371 0
211 261 306 346 351 366 0
242 262 307 347 362 372 0
205 210 225 265 310 355 360 365 0
204 214 229 264 309 354 359 369 0
207 217 242 262 307 352 362 372 0
211 216 246 261 306 351 366 371 0
140 145 150 265 315 320 325 330 0
138 143 148 263 313 318 323 338 0
138 143 148 263 313 318 323 373 0
140 145 150 265 315 320 325 375 0
140 165 265 315 320 330 345 0
140 265 315 320 330 365 0
137 172 262 312 317 332 337 0
138 173 263 313 318 333 338 0
137 262 312 317 332 367 0
138 263 313 318 333 373 0
137 262 312 317 337 362 0
138 263 313 318 338 368 0
140 265 315 320 345 375 0
137 237 262 312 317 362 367 0
140 245 265 315 320 365 375 0
138 248 263 313 318 368 373 0
143 158 263 313 323 328 338 0
145 160 265 315 325 330 340 0
145 265 315 325 330 360 0
143 263 313 323 328 373 0
143 263 313 323 338 363 0
145 265 315 325 340 375 0
144 199 264 314 324 344 349 0
144 264 314 324 344 364 0
144 264 314 324 349 359 0
144 224 264 314 324 359 364 0
145 235 265 315 325 360 375 0
143 243 263 313 323 363 373 0
153 158 173 263 313 328 333 338 0
153 263 313 328 333 373 0
160 165 190 265 315 330 340 345 0
160 265 315 330 340 365 0
158 263 313 328 338 368 0
165 265 315 330 345 360 0
225 265 315 330 360 365 0
248 263 313 328 368 373 0
172 182 192 262 312 332 337 347 0
172 262 312 332 337 352 0
173 263 313 333 338 363 0
182 262 312 332 347 367 0
212 262 312 332 352 367 0
243 263 313 333 363 373 0
189 194 199 264 314 339 344 349 0
189 264 314 339 344 364 0
190 265 315 340 345 375 0
194 264 314 339 349 359 0
192 262 312 337 347 362 0
207 262 312 337 352 362 0
224 264 314 339 359 364 0
238 263 313 338 363 368 0
245 265 315 340 365 375 0
199 264 314 344 349 354 0
209 264 314 344 354 364 0
235 265 315 345 360 375 0
204 264 314 349 354 359 0
237 262 312 347 362 367 0
204 209 224 264 314 354 359 364 0
207 212 237 262 312 352 362 367 0
225 235 245 265 315 360 365 375 0
238 243 248 263 313 363 368 373 0
146 151 261 316 321 326 331 0
150 155 265 320 325 330 335 0
150 265 320 325 330 355 0
146 261 316 321 326 356 0
146 261 316 321 331 351 0
150 265 320 325 335 375 0
148 193 263 318 323 338 348 0
148 263 318 323 338 358 0
148 263 318 323 348 373 0
146 201 261 316 321 351 356 0
150 220 265 320 325 355 375 0
148 233 263 318 323 358 373 0
155 165 180 265 320 330 335 345 0
151 166 181 261 316 326 331 346 0
155 265 320 330 335 365 0
151 261 316 326 331 371 0
165 265 320 330 345 355 0
166 261 316 326 346 356 0
210 265 320 330 355 365 0
231 261 316 326 356 371 0
172 177 187 262 317 332 337 342 0
173 183 193 263 318 333 338 348 0
173 263 318 333 338 358 0
172 262 317 332 337 372 0
177 262 317 332 342 367 0
180 265 320 335 345 375 0
181 261 316 331 346 351 0
183 263 318 333 348 373 0
216 261 316 331 351 371 0
233 263 318 333 358 373 0
245 265 320 335 365 375 0
247 262 317 332 367 372 0
187 262 317 337 342 362 0
193 263 318 338 348 368 0
228 263 318 338 358 368 0
242 262 317 337 362 372 0
220 265 320 345 355 375 0
237 262 317 342 362 367 0
201 261 316 346 351 356 0
248 263 318 348 368 373 0
201 216 231 261 316 351 356 371 0
210 220 245 265 320 355 365 375 0
228 233 248 263 318 358 368 373 0
237 242 247 262 317 362 367 372 0
155 160 175 265 325 330 335 340 0
151 161 176 261 321 326 331 341 0
155 265 325 330 335 360 0
151 261 321 326 331 366 0
158 168 193 263 323 328 338 348 0
160 265 325 330 340 355 0
158 263 323 328 338 358 0
164 169 199 264 324 329 344 349 0
161 261 321 326 341 356 0
164 264 324 329 344 364 0
169 264 324 329 349 359 0
168 263 323 328 348 373 0
205 265 325 330 355 360 0
224 264 324 329 359 364 0
226 261 321 326 356 366 0
233 263 323 328 358 373 0
175 265 325 335 340 375 0
176 261 321 331 341 351 0
211 261 321 331 351 366 0
235 265 325 335 360 375 0
193 263 323 338 348 363 0
220 265 325 340 355 375 0
223 263 323 338 358 363 0
199 264 324 344 349 369 0
201 261 321 341 351 356 0
239 264 324 344 364 369 0
229 264 324 349 359 369 0
243 263 323 348 363 373 0
201 211 226 261 321 351 356 366 0
205 220 235 265 325 355 360 375 0
224 229 239 264 324 359 364 369 0
223 233 243 263 323 358 363 373 0
155 160 165 175 180 190 265 330 335 340 345 0
153 158 168 173 183 193 263 328 333 338 348 0
153 158 173 263 328 333 338 358 0
155 160 175 265 330 335 340 365 0
151 161 166 176 181 196 261 326 331 341 346 0
155 165 180 265 330 335 345 360 0
151 161 176 261 326 331 341 371 0
151 166 181 261 326 331 346 366 0
153 168 183 263 328 333 348 373 0
155 225 265 330 335 360 365 0
153 233 263 328 333 358 373 0
151 246 261 326 331 366 371 0
159 164 169 189 194 199 264 329 339 344 349 0
160 165 190 265 330 340 345 355 0
159 164 189 264 329 339 344 364 0
159 169 194 264 329 339 349 359 0
158 168 193 263 328 338 348 368 0
160 210 265 330 340 355 365 0
159 224 264 329 339 359 364 0
158 228 263 328 338 358 368 0
164 169 199 264 329 344 349 354 0
161 166 196 261 326 341 346 356 0
165 205 265 330 345 355 360 0
164 209 264 329 344 354 364 0
161 231 261 326 341 356 371 0
169 204 264 329 349 354 359 0
166 226 261 326 346 356 366 0
168 248 263 328 348 368 373 0
204 209 224 264 329 354 359 364 0
205 210 225 265 330 355 360 365 0
226 231 246 261 326 356 366 371 0
228 233 248 263 328 358 368 373 0
172 177 182 187 192 197 262 332 337 342 347 0
172 177 187 262 332 337 342 352 0
175 180 190 265 335 340 345 375 0
173 183 193 263 333 338 348 363 0
172 182 192 262 332 337 347 372 0
172 217 262 332 337 352 372 0
173 223 263 333 338 358 363 0
175 245 265 335 340 365 375 0
176 181 196 261 331 341 346 351 0
177 182 197 262 332 342 347 367 0
177 212 262 332 342 352 367 0
176 216 261 331 341 351 371 0
180 235 265 335 345 360 375 0
181 211 261 331 346 351 366 0
183 243 263 333 348 363 373 0
182 247 262 332 347 367 372 0
211 216 246 261 331 351 366 371 0
212 217 247 262 332 352 367 372 0
223 233 243 263 333 358 363 373 0
225 235 245 265 335 360 365 375 0
187 192 197 262 337 342 347 362 0
189 194 199 264 339 344 349 369 0
187 207 262 337 342 352 362 0
190 220 265 340 345 355 375 0
189 239 264 339 344 364 369 0
194 229 264 339 349 359 369 0
193 238 263 338 348 363 368 0
192 242 262 337 347 362 372 0
207 217 242 262 337 352 362 372 0
210 220 245 265 340 355 365 375 0
223 228 238 263 338 358 363 368 0
224 229 239 264 339 359 364 369 0
196 201 261 341 346 351 356 0
199 214 264 344 349 354 369 0
197 237 262 342 347 362 367 0
201 216 231 261 341 351 356 371 0
205 220 235 265 345 355 360 375 0
207 212 237 262 342 352 362 367 0
209 214 239 264 344 354 364 369 0
201 211 226 261 346 351 356 366 0
204 214 229 264 349 354 359 369 0
237 242 247 262 347 362 367 372 0
238 243 248 263 348 363 368 373 0
204 209 214 224 229 239 264 354 359 364 369 0
205 210 220 225 235 245 265 355 360 365 375 0
201 211 216 226 231 246 261 351 356 366 371 0
207 212 217 237 242 247 262 352 362 367 372 0
223 228 233 238 243 248 263 358 363 368 373 0
46 51 56 71 266 271 276 281 286 0
50 55 70 85 270 275 280 285 300 0
46 51 266 271 276 281 311 0
50 55 270 275 280 285 320 0
46 51 266 271 276 281 336 0
50 55 270 275 280 285 340 0
50 55 270 275 280 285 360 0
46 51 266 271 276 281 361 0
46 56 266 271 276 286 306 0
46 56 266 271 276 286 331 0
46 56 266 271 276 286 356 0
49 64 69 99 269 274 279 294 299 0
49 64 269 274 279 294 314 0
49 64 269 274 279 294 329 0
49 64 269 274 279 294 369 0
50 70 270 275 280 300 305 0
49 69 269 274 279 299 309 0
49 69 269 274 279 299 349 0
50 70 270 275 280 300 350 0
49 69 269 274 279 299 364 0
50 70 270 275 280 300 370 0
50 115 270 275 280 305 320 0
50 270 275 280 305 340 0
50 270 275 280 305 360 0
46 121 266 271 276 306 311 0
49 124 269 274 279 309 314 0
49 269 274 279 309 329 0
46 266 271 276 306 336 0
46 266 271 276 306 361 0
49 269 274 279 309 369 0
46 266 271 276 311 331 0
49 269 274 279 314 349 0
46 266 271 276 311 356 0
49 269 274 279 314 364 0
50 270 275 280 320 350 0
50 270 275 280 320 370 0
49 169 269 274 279 329 349 0
49 269 274 279 329 364 0
46 171 266 271 276 331 336 0
46 266 271 276 331 361 0
50 195 270 275 280 340 350 0
46 266 271 276 336 356 0
50 270 275 280 340 370 0
50 270 275 280 350 360 0
49 269 274 279 349 369 0
46 221 266 271 276 356 361 0
50 230 270 275 280 360 370 0
49 239 269 274 279 364 369 0
47 72 77 87 267 272 282 287 292 0
46 71 266 271 281 286 301 0
47 72 267 272 282 287 322 0
46 71 266 271 281 286 326 0
47 72 267 272 282 287 327 0
46 71 266 271 281 286 351 0
47 72 267 272 282 287 357 0
47 77 267 272 282 292 317 0
47 77 267 272 282 292 347 0
47 77 267 272 282 292 352 0
50 85 270 275 285 300 325 0
50 85 270 275 285 300 345 0
50 85 270 275 285 300 365 0
46 106 266 271 281 301 311 0
46 266 271 281 301 336 0
46 266 271 281 301 361 0
46 266 271 281 311 326 0
46 266 271 281 311 351 0
47 147 267 272 282 317 322 0
50 150 270 275 285 320 325 0
47 267 272 282 317 327 0
50 270 275 285 320 345 0
47 267 272 282 317 357 0
50 270 275 285 320 365 0
50 270 275 285 325 340 0
47 267 272 282 322 347 0
47 267 272 282 322 352 0
50 270 275 285 325 360 0
46 156 266 271 281 326 336 0
47 167 267 272 282 327 347 0
47 267 272 282 327 352 0
46 266 271 281 326 361 0
50 190 270 275 285 340 345 0
46 266 271 281 336 351 0
50 270 275 285 340 365 0
50 270 275 285 345 360 0
47 267 272 282 347 357 0
47 202 267 272 282 352 357 0
46 206 266 271 281 351 361 0
50 225 270 275 285 360 365 0
48 88 93 98 268 273 288 293 298 0
48 88 268 273 288 293 308 0
47 87 267 272 287 292 312 0
47 87 267 272 287 292 342 0
48 88 268 273 288 293 343 0
48 88 268 273 288 293 353 0
47 87 267 272 287 292 372 0
48 93 268 273 288 298 303 0
48 93 268 273 288 298 338 0
48 93 268 273 288 298 373 0
46 101 266 271 286 301 306 0
48 103 268 273 288 303 308 0
46 266 271 286 301 331 0
48 268 273 288 303 343 0
48 268 273 288 303 353 0
46 266 271 286 301 356 0
46 266 271 286 306 326 0
48 268 273 288 308 338 0
46 266 271 286 306 351 0
48 268 273 288 308 373 0
47 142 267 272 287 312 322 0
47 267 272 287 312 327 0
47 267 272 287 312 357 0
47 267 272 287 322 342 0
47 267 272 287 322 372 0
46 151 266 271 286 326 331 0
47 162 267 272 287 327 342 0
46 266 271 286 326 356 0
47 267 272 287 327 372 0
46 266 271 286 331 351 0
48 188 268 273 288 338 343 0
48 268 273 288 338 353 0
47 267 272 287 342 357 0
48 268 273 288 343 373 0
46 201 266 271 286 351 356 0
48 218 268 273 288 353 373 0
47 232 267 272 287 357 372 0
49 99 269 274 294 299 319 0
48 98 268 273 293 298 323 0
48 98 268 273 293 298 333 0
49 99 269 274 294 299 334 0
48 98 268 273 293 298 368 0
49 99 269 274 294 299 374 0
48 133 268 273 293 308 323 0
48 268 273 293 308 333 0
48 268 273 293 308 368 0
47 137 267 272 292 312 317 0
49 139 269 274 294 314 319 0
49 269 274 294 314 334 0
47 267 272 292 312 347 0
47 267 272 292 312 352 0
49 269 274 294 314 374 0
49 269 274 294 319 329 0
47 267 272 292 317 342 0
49 269 274 294 319 369 0
47 267 272 292 317 372 0
48 268 273 293 323 343 0
48 268 273 293 323 353 0
49 154 269 274 294 329 334 0
49 269 274 294 329 374 0
48 178 268 273 293 333 343 0
48 268 273 293 333 353 0
49 269 274 294 334 369 0
47 197 267 272 292 342 347 0
47 267 272 292 342 352 0
48 268 273 293 343 368 0
47 267 272 292 347 372 0
48 213 268 273 293 353 368 0
47 217 267 272 292 352 372 0
49 249 269 274 294 369 374 0
48 118 268 273 298 303 323 0
50 120 270 275 300 305 325 0
48 268 273 298 303 333 0
50 270 275 300 305 345 0
50 270 275 300 305 365 0
48 268 273 298 303 368 0
49 129 269 274 299 309 319 0
49 269 274 299 309 334 0
49 269 274 299 309 374 0
49 269 274 299 319 349 0
49 269 274 299 319 364 0
48 268 273 298 323 338 0
50 270 275 300 325 350 0
50 270 275 300 325 370 0
48 268 273 298 323 373 0
48 173 268 273 298 333 338 0
49 184 269 274 299 334 349 0
49 269 274 299 334 364 0
48 268 273 298 333 373 0
48 268 273 298 338 368 0
50 200 270 275 300 345 350 0
50 270 275 300 345 370 0
50 270 275 300 350 365 0
49 269 274 299 349 374 0
50 240 270 275 300 365 370 0
49 244 269 274 299 364 374 0
48 248 268 273 298 368 373 0
46 101 106 121 266 271 301 306 311 0
48 103 118 133 268 273 303 308 323 0
48 103 268 273 303 308 333 0
46 101 266 271 301 306 336 0
46 101 266 271 301 306 361 0
48 103 268 273 303 308 368 0
46 106 266 271 301 311 331 0
46 106 266 271 301 311 356 0
50 115 120 150 270 275 305 320 325 0
50 115 270 275 305 320 345 0
50 115 270 275 305 320 365 0
50 120 270 275 305 325 340 0
48 118 268 273 303 323 343 0
48 118 268 273 303 323 353 0
50 120 270 275 305 325 360 0
46 171 266 271 301 331 336 0
48 178 268 273 303 333 343 0
48 268 273 303 333 353 0
46 266 271 301 331 361 0
50 190 270 275 305 340 345 0
46 266 271 301 336 356 0
50 270 275 305 340 365 0
50 270 275 305 345 360 0
48 268 273 303 343 368 0
48 213 268 273 303 353 368 0
46 221 266 271 301 356 361 0
50 225 270 275 305 360 365 0
49 124 129 139 269 274 309 314 319 0
46 121 266 271 306 311 326 0
49 124 269 274 309 314 334 0
46 121 266 271 306 311 351 0
49 124 269 274 309 314 374 0
49 129 269 274 309 319 329 0
49 129 269 274 309 319 369 0
48 133 268 273 308 323 338 0
48 133 268 273 308 323 373 0
49 154 269 274 309 329 334 0
46 156 266 271 306 326 336 0
46 266 271 306 326 361 0
49 269 274 309 329 374 0
48 173 268 273 308 333 338 0
49 269 274 309 334 369 0
48 268 273 308 333 373 0
46 266 271 306 336 351 0
48 268 273 308 338 368 0
46 206 266 271 306 351 361 0
48 248 268 273 308 368 373 0
49 249 269 274 309 369 374 0
47 137 142 147 267 272 312 317 322 0
47 137 267 272 312 317 327 0
49 139 269 274 314 319 349 0
47 137 267 272 312 317 357 0
49 139 269 274 314 319 364 0
47 142 267 272 312 322 347 0
47 142 267 272 312 322 352 0
46 151 266 271 311 326 331 0
47 167 267 272 312 327 347 0
47 267 272 312 327 352 0
46 266 271 311 326 356 0
49 184 269 274 314 334 349 0
46 266 271 311 331 351 0
49 269 274 314 334 364 0
47 267 272 312 347 357 0
49 269 274 314 349 374 0
46 201 266 271 311 351 356 0
47 202 267 272 312 352 357 0
49 244 269 274 314 364 374 0
47 147 267 272 317 322 342 0
50 150 270 275 320 325 350 0
50 150 270 275 320 325 370 0
47 147 267 272 317 322 372 0
47 162 267 272 317 327 342 0
49 169 269 274 319 329 349 0
49 269 274 319 329 364 0
47 267 272 317 327 372 0
50 200 270 275 320 345 350 0
47 267 272 317 342 357 0
50 270 275 320 345 370 0
50 270 275 320 350 365 0
49 269 274 319 349 369 0
47 232 267 272 317 357 372 0
49 239 269 274 319 364 369 0
50 240 270 275 320 365 370 0
48 188 268 273 323 338 343 0
50 195 270 275 325 340 350 0
48 268 273 323 338 353 0
50 270 275 325 340 370 0
47 197 267 272 322 342 347 0
47 267 272 322 342 352 0
48 268 273 323 343 373 0
50 270 275 325 350 360 0
47 267 272 322 347 372 0
47 217 267 272 322 352 372 0
48 218 268 273 323 353 373 0
50 230 270 275 325 360 370 0
46 151 156 171 266 271 326 331 336 0
49 154 169 184 269 274 329 334 349 0
46 151 266 271 326 331 361 0
49 154 269 274 329 334 364 0
46 156 266 271 326 336 356 0
47 162 167 197 267 272 327 342 347 0
47 162 267 272 327 342 352 0
47 167 267 272 327 347 372 0
49 169 269 274 329 349 374 0
47 217 267 272 327 352 372 0
46 221 266 271 326 356 361 0
49 244 269 274 329 364 374 0
48 173 178 188 268 273 333 338 343 0
46 171 266 271 331 336 351 0
48 173 268 273 333 338 353 0
48 178 268 273 333 343 373 0
49 184 269 274 334 349 369 0
46 206 266 271 331 351 361 0
48 218 268 273 333 353 373 0
49 239 269 274 334 364 369 0
50 190 195 200 270 275 340 345 350 0
48 188 268 273 338 343 368 0
50 190 270 275 340 345 370 0
50 195 270 275 340 350 365 0
46 201 266 271 336 351 356 0
48 213 268 273 338 353 368 0
50 240 270 275 340 365 370 0
47 197 267 272 342 347 357 0
50 200 270 275 345 350 360 0
47 202 267 272 342 352 357 0
50 230 270 275 345 360 370 0
48 248 268 273 343 368 373 0
50 225 270 275 350 360 365 0
47 232 267 272 347 357 372 0
49 249 269 274 349 369 374 0
46 201 206 221 266 271 351 356 361 0
47 202 217 232 267 272 352 357 372 0
48 213 218 248 268 273 353 368 373 0
50 225 230 240 270 275 360 365 370 0
49 239 244 249 269 274 364 369 374 0
52 57 62 72 77 87 267 277 282 287 292 0
51 56 66 71 81 91 266 276 281 286 296 0
51 56 71 266 276 281 286 321 0
52 57 72 267 277 282 287 322 0
52 57 72 267 277 282 287 327 0
51 56 71 266 276 281 286 346 0
52 57 72 267 277 282 287 357 0
51 56 71 266 276 281 286 371 0
55 65 70 80 85 100 270 280 285 295 300 0
52 62 77 267 277 282 292 317 0
55 65 80 270 280 285 295 320 0
55 65 80 270 280 285 295 340 0
52 62 77 267 277 282 292 347 0
52 62 77 267 277 282 292 352 0
55 65 80 270 280 285 295 360 0
51 66 81 266 276 281 296 311 0
55 70 85 270 280 285 300 315 0
55 70 85 270 280 285 300 335 0
51 66 81 266 276 281 296 336 0
55 70 85 270 280 285 300 355 0
51 66 81 266 276 281 296 361 0
55 140 270 280 285 315 320 0
51 141 266 276 281 311 321 0
55 270 280 285 315 340 0
51 266 276 281 311 346 0
55 270 280 285 315 360 0
51 266 276 281 311 371 0
52 147 267 277 282 317 322 0
52 267 277 282 317 327 0
55 270 280 285 320 335 0
55 270 280 285 320 355 0
52 267 277 282 317 357 0
51 266 276 281 321 336 0
52 267 277 282 322 347 0
52 267 277 282 322 352 0
51 266 276 281 321 361 0
52 167 267 277 282 327 347 0
52 267 277 282 327 352 0
55 175 270 280 285 335 340 0
55 270 280 285 335 360 0
51 191 266 276 281 336 346 0
55 270 280 285 340 355 0
51 266 276 281 336 371 0
52 267 277 282 347 357 0
51 266 276 281 346 361 0
52 202 267 277 282 352 357 0
55 205 270 280 285 355 360 0
51 241 266 276 281 361 371 0
59 64 69 89 94 99 269 279 289 294 299 0
57 62 87 267 277 287 292 312 0
59 64 89 269 279 289 294 314 0
59 64 89 269 279 289 294 329 0
57 62 87 267 277 287 292 342 0
59 64 89 269 279 289 294 369 0
57 62 87 267 277 287 292 372 0
56 66 91 266 276 286 296 306 0
59 69 94 269 279 289 299 309 0
56 66 91 266 276 286 296 331 0
59 69 94 269 279 289 299 349 0
56 66 91 266 276 286 296 356 0
59 69 94 269 279 289 299 364 0
59 124 269 279 289 309 314 0
56 131 266 276 286 306 321 0
59 269 279 289 309 329 0
56 266 276 286 306 346 0
59 269 279 289 309 369 0
56 266 276 286 306 371 0
57 142 267 277 287 312 322 0
57 267 277 287 312 327 0
59 269 279 289 314 349 0
57 267 277 287 312 357 0
59 269 279 289 314 364 0
56 266 276 286 321 331 0
57 267 277 287 322 342 0
56 266 276 286 321 356 0
57 267 277 287 322 372 0
57 162 267 277 287 327 342 0
59 169 269 279 289 329 349 0
59 269 279 289 329 364 0
57 267 277 287 327 372 0
56 181 266 276 286 331 346 0
56 266 276 286 331 371 0
57 267 277 287 342 357 0
56 266 276 286 346 356 0
59 269 279 289 349 369 0
56 231 266 276 286 356 371 0
57 232 267 277 287 357 372 0
59 239 269 279 289 364 369 0
64 69 99 269 279 294 299 304 0
65 70 100 270 280 295 300 305 0
64 69 99 269 279 294 299 344 0
65 70 100 270 280 295 300 350 0
64 69 99 269 279 294 299 359 0
65 70 100 270 280 295 300 370 0
64 109 269 279 294 304 314 0
65 115 270 280 295 305 320 0
64 269 279 294 304 329 0
65 270 280 295 305 340 0
65 270 280 295 305 360 0
64 269 279 294 304 369 0
62 137 267 277 292 312 317 0
64 269 279 294 314 344 0
62 267 277 292 312 347 0
62 267 277 292 312 352 0
64 269 279 294 314 359 0
62 267 277 292 317 342 0
65 270 280 295 320 350 0
65 270 280 295 320 370 0
62 267 277 292 317 372 0
64 164 269 279 294 329 344 0
64 269 279 294 329 359 0
65 195 270 280 295 340 350 0
65 270 280 295 340 370 0
62 197 267 277 292 342 347 0
62 267 277 292 342 352 0
64 269 279 294 344 369 0
65 270 280 295 350 360 0
62 267 277 292 347 372 0
62 217 267 277 292 352 372 0
64 229 269 279 294 359 369 0
65 230 270 280 295 360 370 0
69 104 269 279 299 304 309 0
70 110 270 280 300 305 315 0
70 270 280 300 305 335 0
69 269 279 299 304 349 0
70 270 280 300 305 355 0
69 269 279 299 304 364 0
66 121 266 276 296 306 311 0
66 266 276 296 306 336 0
69 269 279 299 309 344 0
69 269 279 299 309 359 0
66 266 276 296 306 361 0
66 266 276 296 311 331 0
70 270 280 300 315 350 0
66 266 276 296 311 356 0
70 270 280 300 315 370 0
66 171 266 276 296 331 336 0
70 185 270 280 300 335 350 0
66 266 276 296 331 361 0
70 270 280 300 335 370 0
66 266 276 296 336 356 0
69 199 269 279 299 344 349 0
69 269 279 299 344 364 0
70 270 280 300 350 355 0
69 269 279 299 349 359 0
70 215 270 280 300 355 370 0
66 221 266 276 296 356 361 0
69 224 269 279 299 359 364 0
104 109 124 269 279 304 309 314 0
104 269 279 304 309 329 0
104 269 279 304 309 369 0
110 115 140 270 280 305 315 320 0
110 270 280 305 315 340 0
109 269 279 304 314 349 0
110 270 280 305 315 360 0
109 269 279 304 314 364 0
115 270 280 305 320 335 0
115 270 280 305 320 355 0
169 269 279 304 329 349 0
269 279 304 329 364 0
175 270 280 305 335 340 0
270 280 305 335 360 0
270 280 305 340 355 0
269 279 304 349 369 0
205 270 280 305 355 360 0
239 269 279 304 364 369 0
121 131 141 266 276 306 311 321 0
124 269 279 309 314 344 0
121 266 276 306 311 346 0
124 269 279 309 314 359 0
121 266 276 306 311 371 0
131 266 276 306 321 336 0
131 266 276 306 321 361 0
164 269 279 309 329 344 0
269 279 309 329 359 0
191 266 276 306 336 346 0
266 276 306 336 371 0
269 279 309 344 369 0
266 276 306 346 361 0
229 269 279 309 359 369 0
241 266 276 306 361 371 0
137 142 147 267 277 312 317 322 0
137 267 277 312 317 327 0
140 270 280 315 320 350 0
137 267 277 312 317 357 0
140 270 280 315 320 370 0
141 266 276 311 321 331 0
142 267 277 312 322 347 0
142 267 277 312 322 352 0
141 266 276 311 321 356 0
167 267 277 312 327 347 0
267 277 312 327 352 0
181 266 276 311 331 346 0
266 276 311 331 371 0
195 270 280 315 340 350 0
270 280 315 340 370 0
199 269 279 314 344 349 0
269 279 314 344 364 0
266 276 311 346 356 0
267 277 312 347 357 0
269 279 314 349 359 0
270 280 315 350 360 0
202 267 277 312 352 357 0
224 269 279 314 359 364 0
230 270 280 315 360 370 0
231 266 276 311 356 371 0
147 267 277 317 322 342 0
147 267 277 317 322 372 0
162 267 277 317 327 342 0
267 277 317 327 372 0
185 270 280 320 335 350 0
270 280 320 335 370 0
267 277 317 342 357 0
270 280 320 350 355 0
215 270 280 320 355 370 0
232 267 277 317 357 372 0
171 266 276 321 331 336 0
266 276 321 331 361 0
266 276 321 336 356 0
197 267 277 322 342 347 0
267 277 322 342 352 0
267 277 322 347 372 0
217 267 277 322 352 372 0
221 266 276 321 356 361 0
162 167 197 267 277 327 342 347 0
164 169 199 269 279 329 344 349 0
162 267 277 327 342 352 0
164 269 279 329 344 364 0
169 269 279 329 349 359 0
167 267 277 327 347 372 0
217 267 277 327 352 372 0
224 269 279 329 359 364 0
171 181 191 266 276 331 336 346 0
175 185 195 270 280 335 340 350 0
175 270 280 335 340 370 0
171 266 276 331 336 371 0
185 270 280 335 350 360 0
181 266 276 331 346 361 0
230 270 280 335 360 370 0
241 266 276 331 361 371 0
195 270 280 340 350 355 0
191 266 276 336 346 356 0
215 270 280 340 355 370 0
231 266 276 336 356 371 0
197 267 277 342 347 357 0
199 269 279 344 349 369 0
202 267 277 342 352 357 0
239 269 279 344 364 369 0
205 270 280 350 355 360 0
221 266 276 346 356 361 0
229 269 279 349 359 369 0
232 267 277 347 357 372 0
205 215 230 270 280 355 360 370 0
202 217 232 267 277 352 357 372 0
224 229 239 269 279 359 364 369 0
221 231 241 266 276 356 361 371 0
73 78 83 88 93 98 268 283 288 293 298 0
72 77 87 267 282 287 292 307 0
73 78 88 268 283 288 293 308 0
72 77 87 267 282 287 292 337 0
73 78 88 268 283 288 293 343 0
73 78 88 268 283 288 293 353 0
72 77 87 267 282 287 292 367 0
71 81 91 266 281 286 296 301 0
73 83 93 268 283 288 298 303 0
71 81 91 266 281 286 296 326 0
73 83 93 268 283 288 298 338 0
71 81 91 266 281 286 296 351 0
73 83 93 268 283 288 298 373 0
73 103 268 283 288 303 308 0
71 116 266 281 286 301 321 0
73 268 283 288 303 343 0
71 266 281 286 301 346 0
73 268 283 288 303 353 0
71 266 281 286 301 371 0
72 132 267 282 287 307 322 0
72 267 282 287 307 327 0
73 268 283 288 308 338 0
72 267 282 287 307 357 0
73 268 283 288 308 373 0
71 266 281 286 321 326 0
72 267 282 287 322 337 0
71 266 281 286 321 351 0
72 267 282 287 322 367 0
72 157 267 282 287 327 337 0
71 166 266 281 286 326 346 0
72 267 282 287 327 367 0
71 266 281 286 326 371 0
73 188 268 283 288 338 343 0
73 268 283 288 338 353 0
72 267 282 287 337 357 0
73 268 283 288 343 373 0
71 266 281 286 346 351 0
71 216 266 281 286 351 371 0
73 218 268 283 288 353 373 0
72 227 267 282 287 357 367 0
78 83 98 268 283 293 298 323 0
80 85 100 270 285 295 300 325 0
78 83 98 268 283 293 298 333 0
80 85 100 270 285 295 300 345 0
80 85 100 270 285 295 300 365 0
78 83 98 268 283 293 298 368 0
77 127 267 282 292 307 317 0
78 133 268 283 293 308 323 0
78 268 283 293 308 333 0
77 267 282 292 307 347 0
77 267 282 292 307 352 0
78 268 283 293 308 368 0
80 150 270 285 295 320 325 0
77 267 282 292 317 337 0
80 270 285 295 320 345 0
80 270 285 295 320 365 0
77 267 282 292 317 367 0
80 270 285 295 325 340 0
78 268 283 293 323 343 0
78 268 283 293 323 353 0
80 270 285 295 325 360 0
78 178 268 283 293 333 343 0
78 268 283 293 333 353 0
80 190 270 285 295 340 345 0
77 192 267 282 292 337 347 0
77 267 282 292 337 352 0
80 270 285 295 340 365 0
80 270 285 295 345 360 0
78 268 283 293 343 368 0
77 267 282 292 347 367 0
77 212 267 282 292 352 367 0
78 213 268 283 293 353 368 0
80 225 270 285 295 360 365 0
81 106 266 281 296 301 311 0
83 118 268 283 298 303 323 0
83 268 283 298 303 333 0
81 266 281 296 301 336 0
81 266 281 296 301 361 0
83 268 283 298 303 368 0
85 145 270 285 300 315 325 0
81 266 281 296 311 326 0
85 270 285 300 315 345 0
81 266 281 296 311 351 0
85 270 285 300 315 365 0
85 270 285 300 325 335 0
83 268 283 298 323 338 0
85 270 285 300 325 355 0
83 268 283 298 323 373 0
81 156 266 281 296 326 336 0
81 266 281 296 326 361 0
83 173 268 283 298 333 338 0
85 180 270 285 300 335 345 0
85 270 285 300 335 365 0
83 268 283 298 333 373 0
81 266 281 296 336 351 0
83 268 283 298 338 368 0
85 270 285 300 345 355 0
81 206 266 281 296 351 361 0
85 210 270 285 300 355 365 0
83 248 268 283 298 368 373 0
103 118 133 268 283 303 308 323 0
103 268 283 303 308 333 0
103 268 283 303 308 368 0
106 116 141 266 281 301 311 321 0
106 266 281 301 311 346 0
106 266 281 301 311 371 0
116 266 281 301 321 336 0
118 268 283 303 323 343 0
118 268 283 303 323 353 0
116 266 281 301 321 361 0
178 268 283 303 333 343 0
268 283 303 333 353 0
191 266 281 301 336 346 0
266 281 301 336 371 0
268 283 303 343 368 0
266 281 301 346 361 0
213 268 283 303 353 368 0
241 266 281 301 361 371 0
127 132 147 267 282 307 317 322 0
127 267 282 307 317 327 0
127 267 282 307 317 357 0
133 268 283 308 323 338 0
132 267 282 307 322 347 0
132 267 282 307 322 352 0
133 268 283 308 323 373 0
167 267 282 307 327 347 0
267 282 307 327 352 0
173 268 283 308 333 338 0
268 283 308 333 373 0
268 283 308 338 368 0
267 282 307 347 357 0
202 267 282 307 352 357 0
248 268 283 308 368 373 0
140 145 150 270 285 315 320 325 0
140 270 285 315 320 345 0
140 270 285 315 320 365 0
141 266 281 311 321 326 0
145 270 285 315 325 340 0
141 266 281 311 321 351 0
145 270 285 315 325 360 0
166 266 281 311 326 346 0
266 281 311 326 371 0
190 270 285 315 340 345 0
270 285 315 340 365 0
270 285 315 345 360 0
266 281 311 346 351 0
216 266 281 311 351 371 0
225 270 285 315 360 365 0
150 270 285 320 325 335 0
147 267 282 317 322 337 0
150 270 285 320 325 355 0
147 267 282 317 322 367 0
157 267 282 317 327 337 0
267 282 317 327 367 0
180 270 285 320 335 345 0
270 285 320 335 365 0
267 282 317 337 357 0
270 285 320 345 355 0
210 270 285 320 355 365 0
227 267 282 317 357 367 0
156 266 281 321 326 336 0
266 281 321 326 361 0
175 270 285 325 335 340 0
270 285 325 335 360 0
188 268 283 323 338 343 0
192 267 282 322 337 347 0
266 281 321 336 351 0
267 282 322 337 352 0
268 283 323 338 353 0
270 285 325 340 355 0
268 283 323 343 373 0
267 282 322 347 367 0
205 270 285 325 355 360 0
206 266 281 321 351 361 0
212 267 282 322 352 367 0
218 268 283 323 353 373 0
156 166 191 266 281 326 336 346 0
157 167 192 267 282 327 337 347 0
157 267 282 327 337 352 0
156 266 281 326 336 371 0
166 266 281 326 346 361 0
167 267 282 327 347 367 0
212 267 282 327 352 367 0
241 266 281 326 361 371 0
173 178 188 268 283 333 338 343 0
175 180 190 270 285 335 340 345 0
173 268 283 333 338 353 0
175 270 285 335 340 365 0
180 270 285 335 345 360 0
178 268 283 333 343 373 0
218 268 283 333 353 373 0
225 270 285 335 360 365 0
190 270 285 340 345 355 0
188 268 283 338 343 368 0
191 266 281 336 346 351 0
192 267 282 337 347 357 0
202 267 282 337 352 357 0
210 270 285 340 355 365 0
213 268 283 338 353 368 0
216 266 281 336 351 371 0
205 270 285 345 355 360 0
248 268 283 343 368 373 0
206 266 281 346 351 361 0
227 267 282 347 357 367 0
205 210 225 270 285 355 360 365 0
202 212 227 267 282 352 357 367 0
206 216 241 266 281 351 361 371 0
213 218 248 268 283 353 368 373 0
88 93 98 268 288 293 298 318 0
89 94 99 269 289 294 299 319 0
88 93 98 268 288 293 298 328 0
89 94 99 269 289 294 299 334 0
88 93 98 268 288 293 298 363 0
89 94 99 269 289 294 299 374 0
87 122 267 287 292 307 312 0
88 128 268 288 293 308 318 0
88 268 288 293 308 328 0
87 267 287 292 307 342 0
88 268 288 293 308 363 0
87 267 287 292 307 372 0
89 139 269 289 294 314 319 0
89 269 289 294 314 334 0
87 267 287 292 312 337 0
87 267 287 292 312 367 0
89 269 289 294 314 374 0
89 269 289 294 319 329 0
88 268 288 293 318 343 0
88 268 288 293 318 353 0
89 269 289 294 319 369 0
89 154 269 289 294 329 334 0
88 163 268 288 293 328 343 0
88 268 288 293 328 353 0
89 269 289 294 329 374 0
89 269 289 294 334 369 0
87 187 267 287 292 337 342 0
87 267 287 292 337 372 0
88 268 288 293 343 363 0
87 267 287 292 342 367 0
88 208 268 288 293 353 363 0
87 247 267 287 292 367 372 0
89 249 269 289 294 369 374 0
91 101 266 286 296 301 306 0
93 113 268 288 298 303 318 0
93 268 288 298 303 328 0
91 266 286 296 301 331 0
91 266 286 296 301 356 0
93 268 288 298 303 363 0
94 129 269 289 299 309 319 0
91 266 286 296 306 326 0
94 269 289 299 309 334 0
91 266 286 296 306 351 0
94 269 289 299 309 374 0
93 268 288 298 318 338 0
94 269 289 299 319 349 0
94 269 289 299 319 364 0
93 268 288 298 318 373 0
91 151 266 286 296 326 331 0
93 158 268 288 298 328 338 0
91 266 286 296 326 356 0
93 268 288 298 328 373 0
94 184 269 289 299 334 349 0
91 266 286 296 331 351 0
94 269 289 299 334 364 0
93 268 288 298 338 363 0
94 269 289 299 349 374 0
91 201 266 286 296 351 356 0
93 243 268 288 298 363 373 0
94 244 269 289 299 364 374 0
103 113 128 268 288 303 308 318 0
101 116 131 266 286 301 306 321 0
103 268 288 303 308 328 0
101 266 286 301 306 346 0
103 268 288 303 308 363 0
101 266 286 301 306 371 0
113 268 288 303 318 343 0
113 268 288 303 318 353 0
116 266 286 301 321 331 0
116 266 286 301 321 356 0
163 268 288 303 328 343 0
268 288 303 328 353 0
181 266 286 301 331 346 0
266 286 301 331 371 0
268 288 303 343 363 0
266 286 301 346 356 0
208 268 288 303 353 363 0
231 266 286 301 356 371 0
124 129 139 269 289 309 314 319 0
122 132 142 267 287 307 312 322 0
122 267 287 307 312 327 0
124 269 289 309 314 334 0
122 267 287 307 312 357 0
124 269 289 309 314 374 0
129 269 289 309 319 329 0
128 268 288 308 318 338 0
129 269 289 309 319 369 0
128 268 288 308 318 373 0
131 266 286 306 321 326 0
132 267 287 307 322 342 0
131 266 286 306 321 351 0
132 267 287 307 322 372 0
154 269 289 309 329 334 0
158 268 288 308 328 338 0
162 267 287 307 327 342 0
166 266 286 306 326 346 0
266 286 306 326 371 0
267 287 307 327 372 0
268 288 308 328 373 0
269 289 309 329 374 0
269 289 309 334 369 0
268 288 308 338 363 0
267 287 307 342 357 0
266 286 306 346 351 0
216 266 286 306 351 371 0
232 267 287 307 357 372 0
243 268 288 308 363 373 0
249 269 289 309 369 374 0
139 269 289 314 319 349 0
139 269 289 314 319 364 0
142 267 287 312 322 337 0
142 267 287 312 322 367 0
157 267 287 312 327 337 0
267 287 312 327 367 0
184 269 289 314 334 349 0
269 289 314 334 364 0
267 287 312 337 357 0
269 289 314 349 374 0
227 267 287 312 357 367 0
244 269 289 314 364 374 0
169 269 289 319 329 349 0
269 289 319 329 364 0
188 268 288 318 338 343 0
268 288 318 338 353 0
268 288 318 343 373 0
269 289 319 349 369 0
218 268 288 318 353 373 0
239 269 289 319 364 369 0
151 266 286 321 326 331 0
266 286 321 326 356 0
266 286 321 331 351 0
187 267 287 322 337 342 0
267 287 322 337 372 0
267 287 322 342 367 0
201 266 286 321 351 356 0
247 267 287 322 367 372 0
151 166 181 266 286 326 331 346 0
154 169 184 269 289 329 334 349 0
154 269 289 329 334 364 0
151 266 286 326 331 371 0
157 162 187 267 287 327 337 342 0
158 163 188 268 288 328 338 343 0
158 268 288 328 338 353 0
157 267 287 327 337 372 0
162 267 287 327 342 367 0
163 268 288 328 343 373 0
166 266 286 326 346 356 0
169 269 289 329 349 374 0
218 268 288 328 353 373 0
231 266 286 326 356 371 0
244 269 289 329 364 374 0
247 267 287 327 367 372 0
181 266 286 331 346 351 0
184 269 289 334 349 369 0
216 266 286 331 351 371 0
239 269 289 334 364 369 0
187 267 287 337 342 357 0
188 268 288 338 343 363 0
208 268 288 338 353 363 0
232 267 287 337 357 372 0
227 267 287 342 357 367 0
243 268 288 343 363 373 0
201 266 286 346 351 356 0
249 269 289 349 369 374 0
201 216 231 266 286 351 356 371 0
208 218 243 268 288 353 363 373 0
227 232 247 267 287 357 367 372 0
239 244 249 269 289 364 369 374 0
99 114 269 294 299 304 319 0
100 120 270 295 300 305 325 0
99 269 294 299 304 334 0
100 270 295 300 305 345 0
100 270 295 300 305 365 0
99 269 294 299 304 374 0
98 148 268 293 298 318 323 0
98 268 293 298 318 333 0
99 269 294 299 319 344 0
99 269 294 299 319 359 0
98 268 293 298 318 368 0
98 268 293 298 323 328 0
100 270 295 300 325 350 0
98 268 293 298 323 363 0
100 270 295 300 325 370 0
98 153 268 293 298 328 333 0
98 268 293 298 328 368 0
99 179 269 294 299 334 344 0
99 269 294 299 334 359 0
98 268 293 298 333 363 0
100 200 270 295 300 345 350 0
100 270 295 300 345 370 0
99 269 294 299 344 374 0
100 270 295 300 350 365 0
99 234 269 294 299 359 374 0
98 238 268 293 298 363 368 0
100 240 270 295 300 365 370 0
109 114 139 269 294 304 314 319 0
109 269 294 304 314 334 0
109 269 294 304 314 374 0
115 120 150 270 295 305 320 325 0
114 269 294 304 319 329 0
115 270 295 305 320 345 0
115 270 295 305 320 365 0
114 269 294 304 319 369 0
120 270 295 305 325 340 0
120 270 295 305 325 360 0
154 269 294 304 329 334 0
269 294 304 329 374 0
269 294 304 334 369 0
190 270 295 305 340 345 0
270 295 305 340 365 0
270 295 305 345 360 0
225 270 295 305 360 365 0
249 269 294 304 369 374 0
122 127 137 267 292 307 312 317 0
122 267 292 307 312 347 0
122 267 292 307 312 352 0
128 133 148 268 293 308 318 323 0
128 268 293 308 318 333 0
127 267 292 307 317 342 0
128 268 293 308 318 368 0
127 267 292 307 317 372 0
133 268 293 308 323 328 0
133 268 293 308 323 363 0
153 268 293 308 328 333 0
268 293 308 328 368 0
268 293 308 333 363 0
197 267 292 307 342 347 0
267 292 307 342 352 0
267 292 307 347 372 0
217 267 292 307 352 372 0
238 268 293 308 363 368 0
137 267 292 312 317 337 0
139 269 294 314 319 344 0
139 269 294 314 319 359 0
137 267 292 312 317 367 0
179 269 294 314 334 344 0
269 294 314 334 359 0
192 267 292 312 337 347 0
267 292 312 337 352 0
269 294 314 344 374 0
267 292 312 347 367 0
212 267 292 312 352 367 0
234 269 294 314 359 374 0
148 268 293 318 323 343 0
150 270 295 320 325 350 0
148 268 293 318 323 353 0
150 270 295 320 325 370 0
164 269 294 319 329 344 0
269 294 319 329 359 0
178 268 293 318 333 343 0
268 293 318 333 353 0
187 267 292 317 337 342 0
267 292 317 337 372 0
200 270 295 320 345 350 0
267 292 317 342 367 0
268 293 318 343 368 0
269 294 319 344 369 0
270 295 320 345 370 0
270 295 320 350 365 0
213 268 293 318 353 368 0
229 269 294 319 359 369 0
240 270 295 320 365 370 0
247 267 292 317 367 372 0
163 268 293 323 328 343 0
268 293 323 328 353 0
195 270 295 325 340 350 0
270 295 325 340 370 0
268 293 323 343 363 0
270 295 325 350 360 0
208 268 293 323 353 363 0
230 270 295 325 360 370 0
153 163 178 268 293 328 333 343 0
154 164 179 269 294 329 334 344 0
153 268 293 328 333 353 0
154 269 294 329 334 359 0
163 268 293 328 343 368 0
164 269 294 329 344 374 0
213 268 293 328 353 368 0
234 269 294 329 359 374 0
178 268 293 333 343 363 0
179 269 294 334 344 369 0
208 268 293 333 353 363 0
229 269 294 334 359 369 0
187 192 197 267 292 337 342 347 0
190 195 200 270 295 340 345 350 0
187 267 292 337 342 352 0
190 270 295 340 345 370 0
195 270 295 340 350 365 0
192 267 292 337 347 372 0
217 267 292 337 352 372 0
240 270 295 340 365 370 0
200 270 295 345 350 360 0
197 267 292 342 347 367 0
212 267 292 342 352 367 0
230 270 295 345 360 370 0
238 268 293 343 363 368 0
249 269 294 344 369 374 0
225 270 295 350 360 365 0
247 267 292 347 367 372 0
208 213 238 268 293 353 363 368 0
212 217 247 267 292 352 367 372 0
225 230 240 270 295 360 365 370 0
229 234 249 269 294 359 369 374 0
101 106 121 266 296 301 306 311 0
104 114 129 269 299 304 309 319 0
104 269 299 304 309 334 0
101 266 296 301 306 336 0
101 266 296 301 306 361 0
104 269 299 304 309 374 0
110 120 145 270 300 305 315 325 0
106 266 296 301 311 331 0
110 270 300 305 315 345 0
106 266 296 301 311 356 0
110 270 300 305 315 365 0
113 118 148 268 298 303 318 323 0
113 268 298 303 318 333 0
114 269 299 304 319 349 0
114 269 299 304 319 364 0
113 268 298 303 318 368 0
118 268 298 303 323 328 0
120 270 300 305 325 335 0
120 270 300 305 325 355 0
118 268 298 303 323 363 0
153 268 298 303 328 333 0
268 298 303 328 368 0
171 266 296 301 331 336 0
180 270 300 305 335 345 0
184 269 299 304 334 349 0
266 296 301 331 361 0
268 298 303 333 363 0
269 299 304 334 364 0
270 300 305 335 365 0
266 296 301 336 356 0
270 300 305 345 355 0
269 299 304 349 374 0
210 270 300 305 355 365 0
221 266 296 301 356 361 0
238 268 298 303 363 368 0
244 269 299 304 364 374 0
121 266 296 306 311 326 0
121 266 296 306 311 351 0
129 269 299 309 319 344 0
129 269 299 309 319 359 0
156 266 296 306 326 336 0
266 296 306 326 361 0
179 269 299 309 334 344 0
269 299 309 334 359 0
266 296 306 336 351 0
269 299 309 344 374 0
206 266 296 306 351 361 0
234 269 299 309 359 374 0
145 270 300 315 325 350 0
145 270 300 315 325 370 0
151 266 296 311 326 331 0
266 296 311 326 356 0
266 296 311 331 351 0
200 270 300 315 345 350 0
270 300 315 345 370 0
270 300 315 350 365 0
201 266 296 311 351 356 0
240 270 300 315 365 370 0
148 268 298 318 323 338 0
148 268 298 318 323 373 0
173 268 298 318 333 338 0
268 298 318 333 373 0
268 298 318 338 368 0
199 269 299 319 344 349 0
269 299 319 344 364 0
269 299 319 349 359 0
224 269 299 319 359 364 0
248 268 298 318 368 373 0
158 268 298 323 328 338 0
268 298 323 328 373 0
185 270 300 325 335 350 0
270 300 325 335 370 0
268 298 323 338 363 0
270 300 325 350 355 0
215 270 300 325 355 370 0
243 268 298 323 363 373 0
151 156 171 266 296 326 331 336 0
153 158 173 268 298 328 333 338 0
151 266 296 326 331 361 0
153 268 298 328 333 373 0
156 266 296 326 336 356 0
158 268 298 328 338 368 0
221 266 296 326 356 361 0
248 268 298 328 368 373 0
171 266 296 331 336 351 0
173 268 298 333 338 363 0
179 184 199 269 299 334 344 349 0
180 185 200 270 300 335 345 350 0
179 269 299 334 344 364 0
180 270 300 335 345 370 0
184 269 299 334 349 359 0
185 270 300 335 350 365 0
206 266 296 331 351 361 0
224 269 299 334 359 364 0
240 270 300 335 365 370 0
243 268 298 333 363 373 0
201 266 296 336 351 356 0
238 268 298 338 363 368 0
200 270 300 345 350 355 0
199 269 299 344 349 374 0
215 270 300 345 355 370 0
244 269 299 344 364 374 0
210 270 300 350 355 365 0
234 269 299 349 359 374 0
201 206 221 266 296 351 356 361 0
210 215 240 270 300 355 365 370 0
224 234 244 269 299 359 364 374 0
238 243 248 268 298 363 368 373 0
104 109 114 124 129 139 269 304 309 314 319 0
101 106 116 121 131 141 266 301 306 311 321 0
104 109 124 269 304 309 314 334 0
101 106 121 266 301 306 311 346 0
101 106 121 266 301 306 311 371 0
104 109 124 269 304 309 314 374 0
103 113 118 128 133 148 268 303 308 318 323 0
104 114 129 269 304 309 319 329 0
103 113 128 268 303 308 318 333 0
103 113 128 268 303 308 318 368 0
104 114 129 269 304 309 319 369 0
103 118 133 268 303 308 323 328 0
101 116 131 266 301 306 321 336 0
101 116 131 266 301 306 321 361 0
103 118 133 268 303 308 323 363 0
103 153 268 303 308 328 333 0
104 154 269 304 309 329 334 0
103 268 303 308 328 368 0
104 269 304 309 329 374 0
103 268 303 308 333 363 0
104 269 304 309 334 369 0
101 191 266 301 306 336 346 0
101 266 301 306 336 371 0
101 266 301 306 346 361 0
103 238 268 303 308 363 368 0
101 241 266 301 306 361 371 0
104 249 269 304 309 369 374 0
110 115 120 140 145 150 270 305 315 320 325 0
110 115 140 270 305 315 320 345 0
109 114 139 269 304 314 319 349 0
109 114 139 269 304 314 319 364 0
110 115 140 270 305 315 320 365 0
106 116 141 266 301 311 321 331 0
110 120 145 270 305 315 325 340 0
106 116 141 266 301 311 321 356 0
110 120 145 270 305 315 325 360 0
106 181 266 301 311 331 346 0
109 184 269 304 314 334 349 0
109 269 304 314 334 364 0
106 266 301 311 331 371 0
110 190 270 305 315 340 345 0
110 270 305 315 340 365 0
110 270 305 315 345 360 0
106 266 301 311 346 356 0
109 269 304 314 349 374 0
110 225 270 305 315 360 365 0
106 231 266 301 311 356 371 0
109 244 269 304 314 364 374 0
115 120 150 270 305 320 325 335 0
113 118 148 268 303 318 323 343 0
113 118 148 268 303 318 323 353 0
115 120 150 270 305 320 325 355 0
114 169 269 304 319 329 349 0
114 269 304 319 329 364 0
113 178 268 303 318 333 343 0
115 180 270 305 320 335 345 0
113 268 303 318 333 353 0
115 270 305 320 335 365 0
115 270 305 320 345 355 0
113 268 303 318 343 368 0
114 269 304 319 349 369 0
115 210 270 305 320 355 365 0
113 213 268 303 318 353 368 0
114 239 269 304 319 364 369 0
118 163 268 303 323 328 343 0
118 268 303 323 328 353 0
116 171 266 301 321 331 336 0
120 175 270 305 325 335 340 0
120 270 305 325 335 360 0
116 266 301 321 331 361 0
120 270 305 325 340 355 0
116 266 301 321 336 356 0
118 268 303 323 343 363 0
120 205 270 305 325 355 360 0
118 208 268 303 323 353 363 0
116 221 266 301 321 356 361 0
153 163 178 268 303 328 333 343 0
154 169 184 269 304 329 334 349 0
153 268 303 328 333 353 0
154 269 304 329 334 364 0
163 268 303 328 343 368 0
169 269 304 329 349 374 0
213 268 303 328 353 368 0
244 269 304 329 364 374 0
175 180 190 270 305 335 340 345 0
171 181 191 266 301 331 336 346 0
175 270 305 335 340 365 0
171 266 301 331 336 371 0
180 270 305 335 345 360 0
178 268 303 333 343 363 0
181 266 301 331 346 361 0
184 269 304 334 349 369 0
208 268 303 333 353 363 0
225 270 305 335 360 365 0
239 269 304 334 364 369 0
241 266 301 331 361 371 0
190 270 305 340 345 355 0
191 266 301 336 346 356 0
210 270 305 340 355 365 0
231 266 301 336 356 371 0
205 270 305 345 355 360 0
238 268 303 343 363 368 0
221 266 301 346 356 361 0
249 269 304 349 369 374 0
205 210 225 270 305 355 360 365 0
208 213 238 268 303 353 363 368 0
221 231 241 266 301 356 361 371 0
239 244 249 269 304 364 369 374 0
122 127 132 137 142 147 267 307 312 317 322 0
122 127 137 267 307 312 317 327 0
124 129 139 269 309 314 319 344 0
122 127 137 267 307 312 317 357 0
124 129 139 269 309 314 319 359 0
121 131 141 266 306 311 321 326 0
122 132 142 267 307 312 322 347 0
121 131 141 266 306 311 321 351 0
122 132 142 267 307 312 322 352 0
121 166 266 306 311 326 346 0
122 167 267 307 312 327 347 0
122 267 307 312 327 352 0
121 266 306 311 326 371 0
124 179 269 309 314 334 344 0
124 269 309 314 334 359 0
124 269 309 314 344 374 0
121 266 306 311 346 351 0
122 267 307 312 347 357 0
122 202 267 307 312 352 357 0
121 216 266 306 311 351 371 0
124 234 269 309 314 359 374 0
128 133 148 268 308 318 323 338 0
127 132 147 267 307 317 322 342 0
127 132 147 267 307 317 322 372 0
128 133 148 268 308 318 323 373 0
127 162 267 307 317 327 342 0
129 164 269 309 319 329 344 0
129 269 309 319 329 359 0
127 267 307 317 327 372 0
128 173 268 308 318 333 338 0
128 268 308 318 333 373 0
128 268 308 318 338 368 0
127 267 307 317 342 357 0
129 269 309 319 344 369 0
129 229 269 309 319 359 369 0
127 232 267 307 317 357 372 0
128 248 268 308 318 368 373 0
131 156 266 306 321 326 336 0
133 158 268 308 323 328 338 0
131 266 306 321 326 361 0
133 268 308 323 328 373 0
131 266 306 321 336 351 0
133 268 308 323 338 363 0
132 197 267 307 322 342 347 0
132 267 307 322 342 352 0
132 267 307 322 347 372 0
131 206 266 306 321 351 361 0
132 217 267 307 322 352 372 0
133 243 268 308 323 363 373 0
153 158 173 268 308 328 333 338 0
154 164 179 269 309 329 334 344 0
154 269 309 329 334 359 0
153 268 308 328 333 373 0
156 166 191 266 306 326 336 346 0
158 268 308 328 338 368 0
156 266 306 326 336 371 0
162 167 197 267 307 327 342 347 0
162 267 307 327 342 352 0
164 269 309 329 344 374 0
166 266 306 326 346 361 0
167 267 307 327 347 372 0
217 267 307 327 352 372 0
234 269 309 329 359 374 0
241 266 306 326 361 371 0
248 268 308 328 368 373 0
173 268 308 333 338 363 0
179 269 309 334 344 369 0
229 269 309 334 359 369 0
243 268 308 333 363 373 0
191 266 306 336 346 351 0
216 266 306 336 351 371 0
238 268 308 338 363 368 0
197 267 307 342 347 357 0
202 267 307 342 352 357 0
249 269 309 344 369 374 0
206 266 306 346 351 361 0
232 267 307 347 357 372 0
202 217 232 267 307 352 357 372 0
206 216 241 266 306 351 361 371 0
229 234 249 269 309 359 369 374 0
238 243 248 268 308 363 368 373 0
137 142 147 267 312 317 322 337 0
140 145 150 270 315 320 325 350 0
137 142 147 267 312 317 322 367 0
140 145 150 270 315 320 325 370 0
137 157 267 312 317 327 337 0
137 267 312 317 327 367 0
137 267 312 317 337 357 0
139 199 269 314 319 344 349 0
140 200 270 315 320 345 350 0
139 269 314 319 344 364 0
140 270 315 320 345 370 0
139 269 314 319 349 359 0
140 270 315 320 350 365 0
139 224 269 314 319 359 364 0
137 227 267 312 317 357 367 0
140 240 270 315 320 365 370 0
141 151 266 311 321 326 331 0
141 266 311 321 326 356 0
141 266 311 321 331 351 0
142 192 267 312 322 337 347 0
145 195 270 315 325 340 350 0
142 267 312 322 337 352 0
145 270 315 325 340 370 0
145 270 315 325 350 360 0
142 267 312 322 347 367 0
141 201 266 311 321 351 356 0
142 212 267 312 322 352 367 0
145 230 270 315 325 360 370 0
151 166 181 266 311 326 331 346 0
151 266 311 326 331 371 0
157 167 192 267 312 327 337 347 0
157 267 312 327 337 352 0
166 266 311 326 346 356 0
167 267 312 327 347 367 0
212 267 312 327 352 367 0
231 266 311 326 356 371 0
179 184 199 269 314 334 344 349 0
179 269 314 334 344 364 0
181 266 311 331 346 351 0
184 269 314 334 349 359 0
216 266 311 331 351 371 0
224 269 314 334 359 364 0
190 195 200 270 315 340 345 350 0
190 270 315 340 345 370 0
192 267 312 337 347 357 0
195 270 315 340 350 365 0
202 267 312 337 352 357 0
240 270 315 340 365 370 0
200 270 315 345 350 360 0
199 269 314 344 349 374 0
230 270 315 345 360 370 0
244 269 314 344 364 374 0
201 266 311 346 351 356 0
225 270 315 350 360 365 0
227 267 312 347 357 367 0
234 269 314 349 359 374 0
202 212 227 267 312 352 357 367 0
201 216 231 266 311 351 356 371 0
225 230 240 270 315 360 365 370 0
224 234 244 269 314 359 364 374 0
150 185 270 320 325 335 350 0
150 270 320 325 335 370 0
147 187 267 317 322 337 342 0
148 188 268 318 323 338 343 0
148 268 318 323 338 353 0
147 267 317 322 337 372 0
147 267 317 322 342 367 0
148 268 318 323 343 373 0
150 270 320 325 350 355 0
150 215 270 320 325 355 370 0
148 218 268 318 323 353 373 0
147 247 267 317 322 367 372 0
157 162 187 267 317 327 337 342 0
157 267 317 327 337 372 0
164 169 199 269 319 329 344 349 0
164 269 319 329 344 364 0
162 267 317 327 342 367 0
169 269 319 329 349 359 0
224 269 319 329 359 364 0
247 267 317 327 367 372 0
173 178 188 268 318 333 338 343 0
173 268 318 333 338 353 0
180 185 200 270 320 335 345 350 0
180 270 320 335 345 370 0
178 268 318 333 343 373 0
185 270 320 335 350 365 0
218 268 318 333 353 373 0
240 270 320 335 365 370 0
187 267 317 337 342 357 0
188 268 318 338 343 368 0
213 268 318 338 353 368 0
232 267 317 337 357 372 0
200 270 320 345 350 355 0
199 269 319 344 349 369 0
215 270 320 345 355 370 0
227 267 317 342 357 367 0
239 269 319 344 364 369 0
248 268 318 343 368 373 0
210 270 320 350 355 365 0
229 269 319 349 359 369 0
210 215 240 270 320 355 365 370 0
213 218 248 268 318 353 368 373 0
224 229 239 269 319 359 364 369 0
227 232 247 267 317 357 367 372 0
151 156 171 266 321 326 331 336 0
151 266 321 326 331 361 0
158 163 188 268 323 328 338 343 0
158 268 323 328 338 353 0
156 266 321 326 336 356 0
163 268 323 328 343 373 0
218 268 323 328 353 373 0
221 266 321 326 356 361 0
175 185 195 270 325 335 340 350 0
171 266 321 331 336 351 0
175 270 325 335 340 370 0
185 270 325 335 350 360 0
206 266 321 331 351 361 0
230 270 325 335 360 370 0
187 192 197 267 322 337 342 347 0
187 267 322 337 342 352 0
188 268 323 338 343 363 0
195 270 325 340 350 355 0
192 267 322 337 347 372 0
201 266 321 336 351 356 0
208 268 323 338 353 363 0
215 270 325 340 355 370 0
217 267 322 337 352 372 0
197 267 322 342 347 367 0
212 267 322 342 352 367 0
243 268 323 343 363 373 0
205 270 325 350 355 360 0
247 267 322 347 367 372 0
201 206 221 266 321 351 356 361 0
205 215 230 270 325 355 360 370 0
208 218 243 268 323 353 363 373 0
212 217 247 267 322 352 367 372 0
153 158 163 173 178 188 268 328 333 338 343 0
151 156 166 171 181 191 266 326 331 336 346 0
153 158 173 268 328 333 338 353 0
151 156 171 266 326 331 336 371 0
154 164 169 179 184 199 269 329 334 344 349 0
154 164 179 269 329 334 344 364 0
153 163 178 268 328 333 343 373 0
154 169 184 269 329 334 349 359 0
151 166 181 266 326 331 346 361 0
153 218 268 328 333 353 373 0
154 224 269 329 334 359 364 0
151 241 266 326 331 361 371 0
157 162 167 187 192 197 267 327 337 342 347 0
157 162 187 267 327 337 342 352 0
158 163 188 268 328 338 343 368 0
156 166 191 266 326 336 346 356 0
157 167 192 267 327 337 347 372 0
158 213 268 328 338 353 368 0
157 217 267 327 337 352 372 0
156 231 266 326 336 356 371 0
162 167 197 267 327 342 347 367 0
164 169 199 269 329 344 349 374 0
162 212 267 327 342 352 367 0
164 244 269 329 344 364 374 0
163 248 268 328 343 368 373 0
166 221 266 326 346 356 361 0
169 234 269 329 349 359 374 0
167 247 267 327 347 367 372 0
212 217 247 267 327 352 367 372 0
213 218 248 268 328 353 368 373 0
221 231 241 266 326 356 361 371 0
224 234 244 269 329 359 364 374 0
175 180 185 190 195 200 270 335 340 345 350 0
173 178 188 268 333 338 343 363 0
175 180 190 270 335 340 345 370 0
171 181 191 266 331 336 346 351 0
175 185 195 270 335 340 350 365 0
173 208 268 333 338 353 363 0
171 216 266 331 336 351 371 0
175 240 270 335 340 365 370 0
180 185 200 270 335 345 350 360 0
179 184 199 269 334 344 349 369 0
180 230 270 335 345 360 370 0
179 239 269 334 344 364 369 0
178 243 268 333 343 363 373 0
181 206 266 331 346 351 361 0
185 225 270 335 350 360 365 0
184 229 269 334 349 359 369 0
206 216 241 266 331 351 361 371 0
208 218 243 268 333 353 363 373 0
224 229 239 269 334 359 364 369 0
225 230 240 270 335 360 365 370 0
190 195 200 270 340 345 350 355 0
187 192 197 267 337 342 347 357 0
187 202 267 337 342 352 357 0
190 215 270 340 345 355 370 0
188 238 268 338 343 363 368 0
191 201 266 336 346 351 356 0
195 210 270 340 350 355 365 0
192 232 267 337 347 357 372 0
201 216 231 266 336 351 356 371 0
202 217 232 267 337 352 357 372 0
208 213 238 268 338 353 363 368 0
210 215 240 270 340 355 365 370 0
200 205 270 345 350 355 360 0
197 227 267 342 347 357 367 0
199 249 269 344 349 369 374 0
202 212 227 267 342 352 357 367 0
205 215 230 270 345 355 360 370 0
238 243 248 268 343 363 368 373 0
239 244 249 269 344 364 369 374 0
201 206 221 266 346 351 356 361 0
205 210 225 270 350 355 360 365 0
227 232 247 267 347 357 367 372 0
229 234 249 269 349 359 369 374 0
205 210 215 225 230 240 270 355 360 365 370 0
201 206 216 221 231 241 266 351 356 361 371 0
202 212 217 227 232 247 267 352 357 367 372 0
208 213 218 238 243 248 268 353 363 368 373 0
224 229 234 239 244 249 269 359 364 369 374 0
51 56 61 71 76 86 271 276 281 286 291 0
55 60 70 75 85 95 275 280 285 290 300 0
51 56 71 271 276 281 286 316 0
55 60 75 275 280 285 290 320 0
55 60 75 275 280 285 290 340 0
51 56 71 271 276 281 286 341 0
55 60 75 275 280 285 290 360 0
51 56 71 271 276 281 286 366 0
54 64 69 79 84 99 274 279 284 294 299 0
51 61 76 271 276 281 291 311 0
54 64 79 274 279 284 294 314 0
54 64 79 274 279 284 294 329 0
51 61 76 271 276 281 291 336 0
51 61 76 271 276 281 291 361 0
54 64 79 274 279 284 294 369 0
54 69 84 274 279 284 299 309 0
55 70 85 275 280 285 300 310 0
55 70 85 275 280 285 300 330 0
54 69 84 274 279 284 299 349 0
54 69 84 274 279 284 299 364 0
55 70 85 275 280 285 300 375 0
54 124 274 279 284 309 314 0
55 130 275 280 285 310 320 0
54 274 279 284 309 329 0
55 275 280 285 310 340 0
55 275 280 285 310 360 0
54 274 279 284 309 369 0
51 136 271 276 281 311 316 0
51 271 276 281 311 341 0
54 274 279 284 314 349 0
54 274 279 284 314 364 0
51 271 276 281 311 366 0
55 275 280 285 320 330 0
51 271 276 281 316 336 0
51 271 276 281 316 361 0
55 275 280 285 320 375 0
55 160 275 280 285 330 340 0
54 169 274 279 284 329 349 0
55 275 280 285 330 360 0
54 274 279 284 329 364 0
51 186 271 276 281 336 341 0
51 271 276 281 336 366 0
55 275 280 285 340 375 0
51 271 276 281 341 361 0
54 274 279 284 349 369 0
55 235 275 280 285 360 375 0
51 236 271 276 281 361 366 0
54 239 274 279 284 364 369 0
58 63 68 88 93 98 273 278 288 293 298 0
56 61 86 271 276 286 291 306 0
58 63 88 273 278 288 293 308 0
56 61 86 271 276 286 291 331 0
58 63 88 273 278 288 293 343 0
58 63 88 273 278 288 293 353 0
56 61 86 271 276 286 291 356 0
58 68 93 273 278 288 298 303 0
60 70 95 275 280 290 300 305 0
58 68 93 273 278 288 298 338 0
60 70 95 275 280 290 300 350 0
60 70 95 275 280 290 300 370 0
58 68 93 273 278 288 298 373 0
58 103 273 278 288 303 308 0
60 115 275 280 290 305 320 0
60 275 280 290 305 340 0
58 273 278 288 303 343 0
58 273 278 288 303 353 0
60 275 280 290 305 360 0
56 126 271 276 286 306 316 0
58 273 278 288 308 338 0
56 271 276 286 306 341 0
56 271 276 286 306 366 0
58 273 278 288 308 373 0
56 271 276 286 316 331 0
60 275 280 290 320 350 0
56 271 276 286 316 356 0
60 275 280 290 320 370 0
56 176 271 276 286 331 341 0
56 271 276 286 331 366 0
58 188 273 278 288 338 343 0
60 195 275 280 290 340 350 0
58 273 278 288 338 353 0
60 275 280 290 340 370 0
56 271 276 286 341 356 0
58 273 278 288 343 373 0
60 275 280 290 350 360 0
58 218 273 278 288 353 373 0
56 226 271 276 286 356 366 0
60 230 275 280 290 360 370 0
63 68 98 273 278 293 298 323 0
64 69 99 274 279 294 299 324 0
63 68 98 273 278 293 298 333 0
64 69 99 274 279 294 299 339 0
64 69 99 274 279 294 299 354 0
63 68 98 273 278 293 298 368 0
61 121 271 276 291 306 311 0
63 133 273 278 293 308 323 0
63 273 278 293 308 333 0
61 271 276 291 306 336 0
61 271 276 291 306 361 0
63 273 278 293 308 368 0
64 144 274 279 294 314 324 0
61 271 276 291 311 331 0
64 274 279 294 314 339 0
64 274 279 294 314 354 0
61 271 276 291 311 356 0
64 274 279 294 324 329 0
63 273 278 293 323 343 0
63 273 278 293 323 353 0
64 274 279 294 324 369 0
64 159 274 279 294 329 339 0
64 274 279 294 329 354 0
61 171 271 276 291 331 336 0
63 178 273 278 293 333 343 0
63 273 278 293 333 353 0
61 271 276 291 331 361 0
61 271 276 291 336 356 0
64 274 279 294 339 369 0
63 273 278 293 343 368 0
63 213 273 278 293 353 368 0
64 214 274 279 294 354 369 0
61 221 271 276 291 356 361 0
70 105 275 280 300 305 310 0
68 118 273 278 298 303 323 0
70 275 280 300 305 330 0
68 273 278 298 303 333 0
68 273 278 298 303 368 0
70 275 280 300 305 375 0
69 134 274 279 299 309 324 0
69 274 279 299 309 339 0
70 275 280 300 310 350 0
69 274 279 299 309 354 0
70 275 280 300 310 370 0
68 273 278 298 323 338 0
69 274 279 299 324 349 0
69 274 279 299 324 364 0
68 273 278 298 323 373 0
70 170 275 280 300 330 350 0
70 275 280 300 330 370 0
68 173 273 278 298 333 338 0
68 273 278 298 333 373 0
69 194 274 279 299 339 349 0
69 274 279 299 339 364 0
68 273 278 298 338 368 0
69 274 279 299 349 354 0
70 275 280 300 350 375 0
69 209 274 279 299 354 364 0
68 248 273 278 298 368 373 0
70 250 275 280 300 370 375 0
105 115 130 275 280 305 310 320 0
103 118 133 273 278 303 308 323 0
103 273 278 303 308 333 0
105 275 280 305 310 340 0
105 275 280 305 310 360 0
103 273 278 303 308 368 0
115 275 280 305 320 330 0
115 275 280 305 320 375 0
118 273 278 303 323 343 0
118 273 278 303 323 353 0
160 275 280 305 330 340 0
275 280 305 330 360 0
178 273 278 303 333 343 0
273 278 303 333 353 0
275 280 305 340 375 0
273 278 303 343 368 0
213 273 278 303 353 368 0
235 275 280 305 360 375 0
121 126 136 271 276 306 311 316 0
124 134 144 274 279 309 314 324 0
124 274 279 309 314 339 0
121 271 276 306 311 341 0
124 274 279 309 314 354 0
121 271 276 306 311 366 0
126 271 276 306 316 336 0
130 275 280 310 320 350 0
126 271 276 306 316 361 0
130 275 280 310 320 370 0
134 274 279 309 324 329 0
133 273 278 308 323 338 0
134 274 279 309 324 369 0
133 273 278 308 323 373 0
159 274 279 309 329 339 0
274 279 309 329 354 0
173 273 278 308 333 338 0
273 278 308 333 373 0
186 271 276 306 336 341 0
195 275 280 310 340 350 0
271 276 306 336 366 0
273 278 308 338 368 0
274 279 309 339 369 0
275 280 310 340 370 0
271 276 306 341 361 0
275 280 310 350 360 0
214 274 279 309 354 369 0
230 275 280 310 360 370 0
236 271 276 306 361 366 0
248 273 278 308 368 373 0
136 271 276 311 316 331 0
136 271 276 311 316 356 0
144 274 279 314 324 349 0
144 274 279 314 324 364 0
176 271 276 311 331 341 0
271 276 311 331 366 0
194 274 279 314 339 349 0
274 279 314 339 364 0
271 276 311 341 356 0
274 279 314 349 354 0
209 274 279 314 354 364 0
226 271 276 311 356 366 0
170 275 280 320 330 350 0
275 280 320 330 370 0
171 271 276 316 331 336 0
271 276 316 331 361 0
271 276 316 336 356 0
275 280 320 350 375 0
221 271 276 316 356 361 0
250 275 280 320 370 375 0
169 274 279 324 329 349 0
274 279 324 329 364 0
188 273 278 323 338 343 0
273 278 323 338 353 0
273 278 323 343 373 0
274 279 324 349 369 0
218 273 278 323 353 373 0
239 274 279 324 364 369 0
159 169 194 274 279 329 339 349 0
160 170 195 275 280 330 340 350 0
159 274 279 329 339 364 0
160 275 280 330 340 370 0
169 274 279 329 349 354 0
170 275 280 330 350 360 0
209 274 279 329 354 364 0
230 275 280 330 360 370 0
171 176 186 271 276 331 336 341 0
173 178 188 273 278 333 338 343 0
173 273 278 333 338 353 0
171 271 276 331 336 366 0
176 271 276 331 341 361 0
178 273 278 333 343 373 0
218 273 278 333 353 373 0
236 271 276 331 361 366 0
186 271 276 336 341 356 0
188 273 278 338 343 368 0
194 274 279 339 349 369 0
195 275 280 340 350 375 0
213 273 278 338 353 368 0
226 271 276 336 356 366 0
239 274 279 339 364 369 0
250 275 280 340 370 375 0
221 271 276 341 356 361 0
248 273 278 343 368 373 0
214 274 279 349 354 369 0
235 275 280 350 360 375 0
209 214 239 274 279 354 364 369 0
213 218 248 273 278 353 368 373 0
221 226 236 271 276 356 361 366 0
230 235 250 275 280 360 370 375 0
72 77 82 87 92 97 272 282 287 292 297 0
71 76 86 271 281 286 291 301 0
72 77 87 272 282 287 292 302 0
71 76 86 271 281 286 291 326 0
72 77 87 272 282 287 292 332 0
71 76 86 271 281 286 291 351 0
72 77 87 272 282 287 292 362 0
72 82 92 272 282 287 297 322 0
75 85 95 275 285 290 300 325 0
72 82 92 272 282 287 297 327 0
75 85 95 275 285 290 300 345 0
72 82 92 272 282 287 297 357 0
75 85 95 275 285 290 300 365 0
71 111 271 281 286 301 316 0
72 117 272 282 287 302 322 0
72 272 282 287 302 327 0
71 271 281 286 301 341 0
72 272 282 287 302 357 0
71 271 281 286 301 366 0
75 150 275 285 290 320 325 0
71 271 281 286 316 326 0
75 275 285 290 320 345 0
71 271 281 286 316 351 0
75 275 285 290 320 365 0
72 272 282 287 322 332 0
75 275 285 290 325 340 0
75 275 285 290 325 360 0
72 272 282 287 322 362 0
72 152 272 282 287 327 332 0
71 161 271 281 286 326 341 0
72 272 282 287 327 362 0
71 271 281 286 326 366 0
72 272 282 287 332 357 0
75 190 275 285 290 340 345 0
75 275 285 290 340 365 0
71 271 281 286 341 351 0
75 275 285 290 345 360 0
71 211 271 281 286 351 366 0
72 222 272 282 287 357 362 0
75 225 275 285 290 360 365 0
77 82 97 272 282 292 297 317 0
79 84 99 274 284 294 299 319 0
79 84 99 274 284 294 299 334 0
77 82 97 272 282 292 297 347 0
77 82 97 272 282 292 297 352 0
79 84 99 274 284 294 299 374 0
76 106 271 281 291 301 311 0
77 112 272 282 292 302 317 0
76 271 281 291 301 336 0
77 272 282 292 302 347 0
77 272 282 292 302 352 0
76 271 281 291 301 361 0
79 139 274 284 294 314 319 0
76 271 281 291 311 326 0
79 274 284 294 314 334 0
76 271 281 291 311 351 0
79 274 284 294 314 374 0
79 274 284 294 319 329 0
77 272 282 292 317 332 0
77 272 282 292 317 362 0
79 274 284 294 319 369 0
79 154 274 284 294 329 334 0
76 156 271 281 291 326 336 0
76 271 281 291 326 361 0
79 274 284 294 329 374 0
77 182 272 282 292 332 347 0
77 272 282 292 332 352 0
79 274 284 294 334 369 0
76 271 281 291 336 351 0
77 272 282 292 347 362 0
76 206 271 281 291 351 361 0
77 207 272 282 292 352 362 0
79 249 274 284 294 369 374 0
84 129 274 284 299 309 319 0
85 135 275 285 300 310 325 0
84 274 284 299 309 334 0
85 275 285 300 310 345 0
85 275 285 300 310 365 0
84 274 284 299 309 374 0
82 147 272 282 297 317 322 0
82 272 282 297 317 327 0
84 274 284 299 319 349 0
82 272 282 297 317 357 0
84 274 284 299 319 364 0
85 275 285 300 325 330 0
82 272 282 297 322 347 0
82 272 282 297 322 352 0
85 275 285 300 325 375 0
85 165 275 285 300 330 345 0
82 167 272 282 297 327 347 0
82 272 282 297 327 352 0
85 275 285 300 330 365 0
84 184 274 284 299 334 349 0
84 274 284 299 334 364 0
85 275 285 300 345 375 0
82 272 282 297 347 357 0
84 274 284 299 349 374 0
82 202 272 282 297 352 357 0
84 244 274 284 299 364 374 0
85 245 275 285 300 365 375 0
106 111 136 271 281 301 311 316 0
106 271 281 301 311 341 0
106 271 281 301 311 366 0
112 117 147 272 282 302 317 322 0
112 272 282 302 317 327 0
111 271 281 301 316 336 0
112 272 282 302 317 357 0
111 271 281 301 316 361 0
117 272 282 302 322 347 0
117 272 282 302 322 352 0
167 272 282 302 327 347 0
272 282 302 327 352 0
186 271 281 301 336 341 0
271 281 301 336 366 0
271 281 301 341 361 0
272 282 302 347 357 0
202 272 282 302 352 357 0
236 271 281 301 361 366 0
124 129 139 274 284 309 314 319 0
124 274 284 309 314 334 0
124 274 284 309 314 374 0
130 135 150 275 285 310 320 325 0
129 274 284 309 319 329 0
130 275 285 310 320 345 0
130 275 285 310 320 365 0
129 274 284 309 319 369 0
135 275 285 310 325 340 0
135 275 285 310 325 360 0
154 274 284 309 329 334 0
274 284 309 329 374 0
274 284 309 334 369 0
190 275 285 310 340 345 0
275 285 310 340 365 0
275 285 310 345 360 0
225 275 285 310 360 365 0
249 274 284 309 369 374 0
136 271 281 311 316 326 0
139 274 284 314 319 349 0
136 271 281 311 316 351 0
139 274 284 314 319 364 0
161 271 281 311 326 341 0
271 281 311 326 366 0
184 274 284 314 334 349 0
274 284 314 334 364 0
271 281 311 341 351 0
274 284 314 349 374 0
211 271 281 311 351 366 0
244 274 284 314 364 374 0
150 275 285 320 325 330 0
147 272 282 317 322 332 0
147 272 282 317 322 362 0
150 275 285 320 325 375 0
152 272 282 317 327 332 0
156 271 281 316 326 336 0
165 275 285 320 330 345 0
169 274 284 319 329 349 0
271 281 316 326 361 0
272 282 317 327 362 0
274 284 319 329 364 0
275 285 320 330 365 0
272 282 317 332 357 0
271 281 316 336 351 0
275 285 320 345 375 0
274 284 319 349 369 0
206 271 281 316 351 361 0
222 272 282 317 357 362 0
239 274 284 319 364 369 0
245 275 285 320 365 375 0
160 275 285 325 330 340 0
275 285 325 330 360 0
182 272 282 322 332 347 0
272 282 322 332 352 0
275 285 325 340 375 0
272 282 322 347 362 0
207 272 282 322 352 362 0
235 275 285 325 360 375 0
152 167 182 272 282 327 332 347 0
154 169 184 274 284 329 334 349 0
152 272 282 327 332 352 0
154 274 284 329 334 364 0
156 161 186 271 281 326 336 341 0
160 165 190 275 285 330 340 345 0
160 275 285 330 340 365 0
156 271 281 326 336 366 0
165 275 285 330 345 360 0
161 271 281 326 341 361 0
167 272 282 327 347 362 0
169 274 284 329 349 374 0
207 272 282 327 352 362 0
225 275 285 330 360 365 0
236 271 281 326 361 366 0
244 274 284 329 364 374 0
182 272 282 332 347 357 0
184 274 284 334 349 369 0
202 272 282 332 352 357 0
239 274 284 334 364 369 0
186 271 281 336 341 351 0
190 275 285 340 345 375 0
211 271 281 336 351 366 0
245 275 285 340 365 375 0
206 271 281 341 351 361 0
235 275 285 345 360 375 0
222 272 282 347 357 362 0
249 274 284 349 369 374 0
202 207 222 272 282 352 357 362 0
206 211 236 271 281 351 361 366 0
225 235 245 275 285 360 365 375 0
239 244 249 274 284 364 369 374 0
87 92 97 272 287 292 297 312 0
88 93 98 273 288 293 298 313 0
87 92 97 272 287 292 297 342 0
88 93 98 273 288 293 298 348 0
88 93 98 273 288 293 298 358 0
87 92 97 272 287 292 297 372 0
86 101 271 286 291 301 306 0
87 107 272 287 292 302 312 0
86 271 286 291 301 331 0
87 272 287 292 302 342 0
86 271 286 291 301 356 0
87 272 287 292 302 372 0
88 123 273 288 293 308 313 0
86 271 286 291 306 326 0
88 273 288 293 308 348 0
86 271 286 291 306 351 0
88 273 288 293 308 358 0
87 272 287 292 312 332 0
88 273 288 293 313 343 0
88 273 288 293 313 353 0
87 272 287 292 312 362 0
86 151 271 286 291 326 331 0
86 271 286 291 326 356 0
87 177 272 287 292 332 342 0
86 271 286 291 331 351 0
87 272 287 292 332 372 0
88 198 273 288 293 343 348 0
88 273 288 293 343 358 0
87 272 287 292 342 362 0
88 273 288 293 348 353 0
86 201 271 286 291 351 356 0
88 203 273 288 293 353 358 0
87 242 272 287 292 362 372 0
93 108 273 288 298 303 313 0
95 120 275 290 300 305 325 0
95 275 290 300 305 345 0
93 273 288 298 303 348 0
93 273 288 298 303 358 0
95 275 290 300 305 365 0
92 142 272 287 297 312 322 0
92 272 287 297 312 327 0
93 273 288 298 313 338 0
92 272 287 297 312 357 0
93 273 288 298 313 373 0
92 272 287 297 322 342 0
95 275 290 300 325 350 0
95 275 290 300 325 370 0
92 272 287 297 322 372 0
92 162 272 287 297 327 342 0
92 272 287 297 327 372 0
93 193 273 288 298 338 348 0
93 273 288 298 338 358 0
95 200 275 290 300 345 350 0
92 272 287 297 342 357 0
95 275 290 300 345 370 0
95 275 290 300 350 365 0
93 273 288 298 348 373 0
92 232 272 287 297 357 372 0
93 233 273 288 298 358 373 0
95 240 275 290 300 365 370 0
103 108 123 273 288 303 308 313 0
101 111 126 271 286 301 306 316 0
101 271 286 301 306 341 0
103 273 288 303 308 348 0
103 273 288 303 308 358 0
101 271 286 301 306 366 0
107 117 142 272 287 302 312 322 0
107 272 287 302 312 327 0
108 273 288 303 313 343 0
108 273 288 303 313 353 0
107 272 287 302 312 357 0
115 120 150 275 290 305 320 325 0
111 271 286 301 316 331 0
115 275 290 305 320 345 0
111 271 286 301 316 356 0
115 275 290 305 320 365 0
120 275 290 305 325 340 0
117 272 287 302 322 342 0
120 275 290 305 325 360 0
117 272 287 302 322 372 0
162 272 287 302 327 342 0
272 287 302 327 372 0
176 271 286 301 331 341 0
271 286 301 331 366 0
190 275 290 305 340 345 0
275 290 305 340 365 0
198 273 288 303 343 348 0
271 286 301 341 356 0
272 287 302 342 357 0
273 288 303 343 358 0
275 290 305 345 360 0
273 288 303 348 353 0
203 273 288 303 353 358 0
225 275 290 305 360 365 0
226 271 286 301 356 366 0
232 272 287 302 357 372 0
123 273 288 308 313 338 0
123 273 288 308 313 373 0
126 271 286 306 316 326 0
126 271 286 306 316 351 0
161 271 286 306 326 341 0
271 286 306 326 366 0
193 273 288 308 338 348 0
273 288 308 338 358 0
271 286 306 341 351 0
273 288 308 348 373 0
211 271 286 306 351 366 0
233 273 288 308 358 373 0
142 272 287 312 322 332 0
142 272 287 312 322 362 0
152 272 287 312 327 332 0
272 287 312 327 362 0
272 287 312 332 357 0
188 273 288 313 338 343 0
273 288 313 338 353 0
273 288 313 343 373 0
218 273 288 313 353 373 0
222 272 287 312 357 362 0
150 275 290 320 325 350 0
150 275 290 320 325 370 0
151 271 286 316 326 331 0
271 286 316 326 356 0
271 286 316 331 351 0
200 275 290 320 345 350 0
275 290 320 345 370 0
275 290 320 350 365 0
201 271 286 316 351 356 0
240 275 290 320 365 370 0
177 272 287 322 332 342 0
272 287 322 332 372 0
195 275 290 325 340 350 0
275 290 325 340 370 0
272 287 322 342 362 0
275 290 325 350 360 0
230 275 290 325 360 370 0
242 272 287 322 362 372 0
151 161 176 271 286 326 331 341 0
152 162 177 272 287 327 332 342 0
151 271 286 326 331 366 0
152 272 287 327 332 372 0
161 271 286 326 341 356 0
162 272 287 327 342 362 0
226 271 286 326 356 366 0
242 272 287 327 362 372 0
176 271 286 331 341 351 0
177 272 287 332 342 357 0
211 271 286 331 351 366 0
232 272 287 332 357 372 0
188 193 198 273 288 338 343 348 0
190 195 200 275 290 340 345 350 0
188 273 288 338 343 358 0
190 275 290 340 345 370 0
193 273 288 338 348 353 0
195 275 290 340 350 365 0
203 273 288 338 353 358 0
240 275 290 340 365 370 0
200 275 290 345 350 360 0
198 273 288 343 348 373 0
201 271 286 341 351 356 0
222 272 287 342 357 362 0
230 275 290 345 360 370 0
233 273 288 343 358 373 0
218 273 288 348 353 373 0
225 275 290 350 360 365 0
201 211 226 271 286 351 356 366 0
203 218 233 273 288 353 358 373 0
225 230 240 275 290 360 365 370 0
222 232 242 272 287 357 362 372 0
97 137 272 292 297 312 317 0
98 143 273 293 298 313 323 0
98 273 293 298 313 333 0
97 272 292 297 312 347 0
97 272 292 297 312 352 0
98 273 293 298 313 368 0
99 149 274 294 299 319 324 0
99 274 294 299 319 339 0
97 272 292 297 317 342 0
99 274 294 299 319 354 0
97 272 292 297 317 372 0
99 274 294 299 324 334 0
98 273 293 298 323 348 0
98 273 293 298 323 358 0
99 274 294 299 324 374 0
99 174 274 294 299 334 339 0
98 183 273 293 298 333 348 0
99 274 294 299 334 354 0
98 273 293 298 333 358 0
99 274 294 299 339 374 0
97 197 272 292 297 342 347 0
97 272 292 297 342 352 0
98 273 293 298 348 368 0
97 272 292 297 347 372 0
97 217 272 292 297 352 372 0
99 219 274 294 299 354 374 0
98 228 273 293 298 358 368 0
101 106 121 271 291 301 306 311 0
101 271 291 301 306 336 0
101 271 291 301 306 361 0
107 112 137 272 292 302 312 317 0
106 271 291 301 311 331 0
107 272 292 302 312 347 0
107 272 292 302 312 352 0
106 271 291 301 311 356 0
112 272 292 302 317 342 0
112 272 292 302 317 372 0
171 271 291 301 331 336 0
271 291 301 331 361 0
271 291 301 336 356 0
197 272 292 302 342 347 0
272 292 302 342 352 0
272 292 302 347 372 0
217 272 292 302 352 372 0
221 271 291 301 356 361 0
123 133 143 273 293 308 313 323 0
121 271 291 306 311 326 0
123 273 293 308 313 333 0
121 271 291 306 311 351 0
123 273 293 308 313 368 0
133 273 293 308 323 348 0
133 273 293 308 323 358 0
156 271 291 306 326 336 0
271 291 306 326 361 0
183 273 293 308 333 348 0
273 293 308 333 358 0
271 291 306 336 351 0
273 293 308 348 368 0
206 271 291 306 351 361 0
228 273 293 308 358 368 0
139 144 149 274 294 314 319 324 0
137 272 292 312 317 332 0
139 274 294 314 319 339 0
139 274 294 314 319 354 0
137 272 292 312 317 362 0
144 274 294 314 324 334 0
143 273 293 313 323 343 0
143 273 293 313 323 353 0
144 274 294 314 324 374 0
151 271 291 311 326 331 0
271 291 311 326 356 0
174 274 294 314 334 339 0
178 273 293 313 333 343 0
182 272 292 312 332 347 0
271 291 311 331 351 0
272 292 312 332 352 0
273 293 313 333 353 0
274 294 314 334 354 0
274 294 314 339 374 0
273 293 313 343 368 0
272 292 312 347 362 0
201 271 291 311 351 356 0
207 272 292 312 352 362 0
213 273 293 313 353 368 0
219 274 294 314 354 374 0
149 274 294 319 324 329 0
149 274 294 319 324 369 0
159 274 294 319 329 339 0
274 294 319 329 354 0
177 272 292 317 332 342 0
272 292 317 332 372 0
274 294 319 339 369 0
272 292 317 342 362 0
214 274 294 319 354 369 0
242 272 292 317 362 372 0
154 274 294 324 329 334 0
274 294 324 329 374 0
274 294 324 334 369 0
198 273 293 323 343 348 0
273 293 323 343 358 0
273 293 323 348 353 0
203 273 293 323 353 358 0
249 274 294 324 369 374 0
151 156 171 271 291 326 331 336 0
154 159 174 274 294 329 334 339 0
154 274 294 329 334 354 0
151 271 291 326 331 361 0
156 271 291 326 336 356 0
159 274 294 329 339 374 0
219 274 294 329 354 374 0
221 271 291 326 356 361 0
171 271 291 331 336 351 0
174 274 294 334 339 369 0
177 182 197 272 292 332 342 347 0
178 183 198 273 293 333 343 348 0
177 272 292 332 342 352 0
178 273 293 333 343 358 0
183 273 293 333 348 353 0
182 272 292 332 347 372 0
203 273 293 333 353 358 0
206 271 291 331 351 361 0
214 274 294 334 354 369 0
217 272 292 332 352 372 0
201 271 291 336 351 356 0
249 274 294 339 369 374 0
197 272 292 342 347 362 0
198 273 293 343 348 368 0
207 272 292 342 352 362 0
228 273 293 343 358 368 0
213 273 293 348 353 368 0
242 272 292 347 362 372 0
201 206 221 271 291 351 356 361 0
203 213 228 273 293 353 358 368 0
207 217 242 272 292 352 362 372 0
214 219 249 274 294 354 369 374 0
105 120 135 275 300 305 310 325 0
105 275 300 305 310 345 0
105 275 300 305 310 365 0
108 118 143 273 298 303 313 323 0
108 273 298 303 313 333 0
108 273 298 303 313 368 0
120 275 300 305 325 330 0
118 273 298 303 323 348 0
118 273 298 303 323 358 0
120 275 300 305 325 375 0
165 275 300 305 330 345 0
275 300 305 330 365 0
183 273 298 303 333 348 0
273 298 303 333 358 0
275 300 305 345 375 0
273 298 303 348 368 0
228 273 298 303 358 368 0
245 275 300 305 365 375 0
129 134 149 274 299 309 319 324 0
129 274 299 309 319 339 0
129 274 299 309 319 354 0
134 274 299 309 324 334 0
135 275 300 310 325 350 0
135 275 300 310 325 370 0
134 274 299 309 324 374 0
174 274 299 309 334 339 0
274 299 309 334 354 0
274 299 309 339 374 0
200 275 300 310 345 350 0
275 300 310 345 370 0
275 300 310 350 365 0
219 274 299 309 354 374 0
240 275 300 310 365 370 0
137 142 147 272 297 312 317 322 0
137 272 297 312 317 327 0
137 272 297 312 317 357 0
143 273 298 313 323 338 0
142 272 297 312 322 347 0
142 272 297 312 322 352 0
143 273 298 313 323 373 0
167 272 297 312 327 347 0
272 297 312 327 352 0
173 273 298 313 333 338 0
273 298 313 333 373 0
273 298 313 338 368 0
272 297 312 347 357 0
202 272 297 312 352 357 0
248 273 298 313 368 373 0
147 272 297 317 322 342 0
149 274 299 319 324 349 0
149 274 299 319 324 364 0
147 272 297 317 322 372 0
162 272 297 317 327 342 0
272 297 317 327 372 0
194 274 299 319 339 349 0
274 299 319 339 364 0
272 297 317 342 357 0
274 299 319 349 354 0
209 274 299 319 354 364 0
232 272 297 317 357 372 0
170 275 300 325 330 350 0
275 300 325 330 370 0
184 274 299 324 334 349 0
274 299 324 334 364 0
193 273 298 323 338 348 0
273 298 323 338 358 0
197 272 297 322 342 347 0
272 297 322 342 352 0
272 297 322 347 372 0
273 298 323 348 373 0
274 299 324 349 374 0
275 300 325 350 375 0
217 272 297 322 352 372 0
233 273 298 323 358 373 0
244 274 299 324 364 374 0
250 275 300 325 370 375 0
162 167 197 272 297 327 342 347 0
165 170 200 275 300 330 345 350 0
162 272 297 327 342 352 0
165 275 300 330 345 370 0
170 275 300 330 350 365 0
167 272 297 327 347 372 0
217 272 297 327 352 372 0
240 275 300 330 365 370 0
173 183 193 273 298 333 338 348 0
174 184 194 274 299 334 339 349 0
173 273 298 333 338 358 0
174 274 299 334 339 364 0
184 274 299 334 349 354 0
183 273 298 333 348 373 0
209 274 299 334 354 364 0
233 273 298 333 358 373 0
193 273 298 338 348 368 0
194 274 299 339 349 374 0
228 273 298 338 358 368 0
244 274 299 339 364 374 0
197 272 297 342 347 357 0
200 275 300 345 350 375 0
202 272 297 342 352 357 0
250 275 300 345 370 375 0
219 274 299 349 354 374 0
232 272 297 347 357 372 0
245 275 300 350 365 375 0
248 273 298 348 368 373 0
202 217 232 272 297 352 357 372 0
209 219 244 274 299 354 364 374 0
228 233 248 273 298 358 368 373 0
240 245 250 275 300 365 370 375 0
101 106 111 121 126 136 271 301 306 311 316 0
103 108 118 123 133 143 273 303 308 313 323 0
103 108 123 273 303 308 313 333 0
101 106 121 271 301 306 311 341 0
101 106 121 271 301 306 311 366 0
103 108 123 273 303 308 313 368 0
105 115 120 130 135 150 275 305 310 320 325 0
101 111 126 271 301 306 316 336 0
105 115 130 275 305 310 320 345 0
101 111 126 271 301 306 316 361 0
105 115 130 275 305 310 320 365 0
105 120 135 275 305 310 325 340 0
103 118 133 273 303 308 323 348 0
103 118 133 273 303 308 323 358 0
105 120 135 275 305 310 325 360 0
103 183 273 303 308 333 348 0
103 273 303 308 333 358 0
101 186 271 301 306 336 341 0
105 190 275 305 310 340 345 0
105 275 305 310 340 365 0
101 271 301 306 336 366 0
105 275 305 310 345 360 0
101 271 301 306 341 361 0
103 273 303 308 348 368 0
105 225 275 305 310 360 365 0
103 228 273 303 308 358 368 0
101 236 271 301 306 361 366 0
107 112 117 137 142 147 272 302 312 317 322 0
107 112 137 272 302 312 317 327 0
106 111 136 271 301 311 316 331 0
106 111 136 271 301 311 316 356 0
107 112 137 272 302 312 317 357 0
108 118 143 273 303 313 323 343 0
107 117 142 272 302 312 322 347 0
107 117 142 272 302 312 322 352 0
108 118 143 273 303 313 323 353 0
107 167 272 302 312 327 347 0
107 272 302 312 327 352 0
106 176 271 301 311 331 341 0
108 178 273 303 313 333 343 0
108 273 303 313 333 353 0
106 271 301 311 331 366 0
106 271 301 311 341 356 0
108 273 303 313 343 368 0
107 272 302 312 347 357 0
107 202 272 302 312 352 357 0
108 213 273 303 313 353 368 0
106 226 271 301 311 356 366 0
115 120 150 275 305 320 325 330 0
112 117 147 272 302 317 322 342 0
112 117 147 272 302 317 322 372 0
115 120 150 275 305 320 325 375 0
112 162 272 302 317 327 342 0
115 165 275 305 320 330 345 0
115 275 305 320 330 365 0
112 272 302 317 327 372 0
111 171 271 301 316 331 336 0
111 271 301 316 331 361 0
111 271 301 316 336 356 0
112 272 302 317 342 357 0
115 275 305 320 345 375 0
111 221 271 301 316 356 361 0
112 232 272 302 317 357 372 0
115 245 275 305 320 365 375 0
120 160 275 305 325 330 340 0
120 275 305 325 330 360 0
120 275 305 325 340 375 0
117 197 272 302 322 342 347 0
118 198 273 303 323 343 348 0
117 272 302 322 342 352 0
118 273 303 323 343 358 0
118 273 303 323 348 353 0
117 272 302 322 347 372 0
118 203 273 303 323 353 358 0
117 217 272 302 322 352 372 0
120 235 275 305 325 360 375 0
160 165 190 275 305 330 340 345 0
160 275 305 330 340 365 0
162 167 197 272 302 327 342 347 0
162 272 302 327 342 352 0
165 275 305 330 345 360 0
167 272 302 327 347 372 0
217 272 302 327 352 372 0
225 275 305 330 360 365 0
171 176 186 271 301 331 336 341 0
171 271 301 331 336 366 0
178 183 198 273 303 333 343 348 0
178 273 303 333 343 358 0
176 271 301 331 341 361 0
183 273 303 333 348 353 0
203 273 303 333 353 358 0
236 271 301 331 361 366 0
186 271 301 336 341 356 0
190 275 305 340 345 375 0
226 271 301 336 356 366 0
245 275 305 340 365 375 0
197 272 302 342 347 357 0
198 273 303 343 348 368 0
202 272 302 342 352 357 0
221 271 301 341 356 361 0
228 273 303 343 358 368 0
235 275 305 345 360 375 0
213 273 303 348 353 368 0
232 272 302 347 357 372 0
203 213 228 273 303 353 358 368 0
202 217 232 272 302 352 357 372 0
221 226 236 271 301 356 361 366 0
225 235 245 275 305 360 365 375 0
124 129 134 139 144 149 274 309 314 319 324 0
121 126 136 271 306 311 316 326 0
124 129 139 274 309 314 319 339 0
121 126 136 271 306 311 316 351 0
124 129 139 274 309 314 319 354 0
124 134 144 274 309 314 324 334 0
123 133 143 273 308 313 323 338 0
123 133 143 273 308 313 323 373 0
124 134 144 274 309 314 324 374 0
121 161 271 306 311 326 341 0
121 271 306 311 326 366 0
123 173 273 308 313 333 338 0
124 174 274 309 314 334 339 0
124 274 309 314 334 354 0
123 273 308 313 333 373 0
123 273 308 313 338 368 0
124 274 309 314 339 374 0
121 271 306 311 341 351 0
121 211 271 306 311 351 366 0
124 219 274 309 314 354 374 0
123 248 273 308 313 368 373 0
129 134 149 274 309 319 324 329 0
130 135 150 275 310 320 325 350 0
129 134 149 274 309 319 324 369 0
130 135 150 275 310 320 325 370 0
126 156 271 306 316 326 336 0
129 159 274 309 319 329 339 0
129 274 309 319 329 354 0
126 271 306 316 326 361 0
126 271 306 316 336 351 0
129 274 309 319 339 369 0
130 200 275 310 320 345 350 0
130 275 310 320 345 370 0
130 275 310 320 350 365 0
126 206 271 306 316 351 361 0
129 214 274 309 319 354 369 0
130 240 275 310 320 365 370 0
134 154 274 309 324 329 334 0
134 274 309 324 329 374 0
134 274 309 324 334 369 0
133 193 273 308 323 338 348 0
135 195 275 310 325 340 350 0
133 273 308 323 338 358 0
135 275 310 325 340 370 0
135 275 310 325 350 360 0
133 273 308 323 348 373 0
135 230 275 310 325 360 370 0
133 233 273 308 323 358 373 0
134 249 274 309 324 369 374 0
154 159 174 274 309 329 334 339 0
154 274 309 329 334 354 0
156 161 186 271 306 326 336 341 0
156 271 306 326 336 366 0
159 274 309 329 339 374 0
161 271 306 326 341 361 0
219 274 309 329 354 374 0
236 271 306 326 361 366 0
173 183 193 273 308 333 338 348 0
173 273 308 333 338 358 0
174 274 309 334 339 369 0
183 273 308 333 348 373 0
214 274 309 334 354 369 0
233 273 308 333 358 373 0
190 195 200 275 310 340 345 350 0
186 271 306 336 341 351 0
190 275 310 340 345 370 0
195 275 310 340 350 365 0
193 273 308 338 348 368 0
211 271 306 336 351 366 0
228 273 308 338 358 368 0
240 275 310 340 365 370 0
249 274 309 339 369 374 0
200 275 310 345 350 360 0
206 271 306 341 351 361 0
230 275 310 345 360 370 0
225 275 310 350 360 365 0
248 273 308 348 368 373 0
206 211 236 271 306 351 361 366 0
214 219 249 274 309 354 369 374 0
225 230 240 275 310 360 365 370 0
228 233 248 273 308 358 368 373 0
137 142 147 272 312 317 322 332 0
139 144 149 274 314 319 324 349 0
137 142 147 272 312 317 322 362 0
139 144 149 274 314 319 324 364 0
136 151 271 311 316 326 331 0
137 152 272 312 317 327 332 0
136 271 311 316 326 356 0
137 272 312 317 327 362 0
136 271 311 316 331 351 0
137 272 312 317 332 357 0
139 194 274 314 319 339 349 0
139 274 314 319 339 364 0
139 274 314 319 349 354 0
136 201 271 311 316 351 356 0
139 209 274 314 319 354 364 0
137 222 272 312 317 357 362 0
142 182 272 312 322 332 347 0
144 184 274 314 324 334 349 0
142 272 312 322 332 352 0
144 274 314 324 334 364 0
143 188 273 313 323 338 343 0
143 273 313 323 338 353 0
143 273 313 323 343 373 0
142 272 312 322 347 362 0
144 274 314 324 349 374 0
142 207 272 312 322 352 362 0
143 218 273 313 323 353 373 0
144 244 274 314 324 364 374 0
151 161 176 271 311 326 331 341 0
152 167 182 272 312 327 332 347 0
152 272 312 327 332 352 0
151 271 311 326 331 366 0
161 271 311 326 341 356 0
167 272 312 327 347 362 0
207 272 312 327 352 362 0
226 271 311 326 356 366 0
173 178 188 273 313 333 338 343 0
174 184 194 274 314 334 339 349 0
173 273 313 333 338 353 0
174 274 314 334 339 364 0
176 271 311 331 341 351 0
178 273 313 333 343 373 0
184 274 314 334 349 354 0
182 272 312 332 347 357 0
202 272 312 332 352 357 0
209 274 314 334 354 364 0
211 271 311 331 351 366 0
218 273 313 333 353 373 0
188 273 313 338 343 368 0
194 274 314 339 349 374 0
213 273 313 338 353 368 0
244 274 314 339 364 374 0
201 271 311 341 351 356 0
248 273 313 343 368 373 0
219 274 314 349 354 374 0
222 272 312 347 357 362 0
202 207 222 272 312 352 357 362 0
201 211 226 271 311 351 356 366 0
209 219 244 274 314 354 364 374 0
213 218 248 273 313 353 368 373 0
149 169 274 319 324 329 349 0
150 170 275 320 325 330 350 0
149 274 319 324 329 364 0
150 275 320 325 330 370 0
147 177 272 317 322 332 342 0
147 272 317 322 332 372 0
147 272 317 322 342 362 0
149 274 319 324 349 369 0
150 275 320 325 350 375 0
149 239 274 319 324 364 369 0
147 242 272 317 322 362 372 0
150 250 275 320 325 370 375 0
151 156 171 271 316 326 331 336 0
152 162 177 272 317 327 332 342 0
151 271 316 326 331 361 0
152 272 317 327 332 372 0
159 169 194 274 319 329 339 349 0
156 271 316 326 336 356 0
159 274 319 329 339 364 0
165 170 200 275 320 330 345 350 0
162 272 317 327 342 362 0
165 275 320 330 345 370 0
169 274 319 329 349 354 0
170 275 320 330 350 365 0
209 274 319 329 354 364 0
221 271 316 326 356 361 0
240 275 320 330 365 370 0
242 272 317 327 362 372 0
171 271 316 331 336 351 0
177 272 317 332 342 357 0
206 271 316 331 351 361 0
232 272 317 332 357 372 0
194 274 319 339 349 369 0
201 271 316 336 351 356 0
239 274 319 339 364 369 0
200 275 320 345 350 375 0
222 272 317 342 357 362 0
250 275 320 345 370 375 0
214 274 319 349 354 369 0
245 275 320 350 365 375 0
201 206 221 271 316 351 356 361 0
209 214 239 274 319 354 364 369 0
222 232 242 272 317 357 362 372 0
240 245 250 275 320 365 370 375 0
154 169 184 274 324 329 334 349 0
154 274 324 329 334 364 0
160 170 195 275 325 330 340 350 0
160 275 325 330 340 370 0
170 275 325 330 350 360 0
169 274 324 329 349 374 0
230 275 325 330 360 370 0
244 274 324 329 364 374 0
177 182 197 272 322 332 342 347 0
177 272 322 332 342 352 0
184 274 324 334 349 369 0
182 272 322 332 347 372 0
217 272 322 332 352 372 0
239 274 324 334 364 369 0
188 193 198 273 323 338 343 348 0
188 273 323 338 343 358 0
193 273 323 338 348 353 0
195 275 325 340 350 375 0
203 273 323 338 353 358 0
250 275 325 340 370 375 0
197 272 322 342 347 362 0
198 273 323 343 348 373 0
207 272 322 342 352 362 0
233 273 323 343 358 373 0
218 273 323 348 353 373 0
235 275 325 350 360 375 0
242 272 322 347 362 372 0
249 274 324 349 369 374 0
203 218 233 273 323 353 358 373 0
207 217 242 272 322 352 362 372 0
230 235 250 275 325 360 370 375 0
239 244 249 274 324 364 369 374 0
151 156 161 171 176 186 271 326 331 336 341 0
154 159 169 174 184 194 274 329 334 339 349 0
154 159 174 274 329 334 339 364 0
151 156 171 271 326 331 336 366 0
152 162 167 177 182 197 272 327 332 342 347 0
152 162 177 272 327 332 342 352 0
151 161 176 271 326 331 341 361 0
154 169 184 274 329 334 349 354 0
152 167 182 272 327 332 347 372 0
154 209 274 329 334 354 364 0
152 217 272 327 332 352 372 0
151 236 271 326 331 361 366 0
160 165 170 190 195 200 275 330 340 345 350 0
156 161 186 271 326 336 341 356 0
160 165 190 275 330 340 345 370 0
160 170 195 275 330 340 350 365 0
159 169 194 274 329 339 349 374 0
156 226 271 326 336 356 366 0
160 240 275 330 340 365 370 0
159 244 274 329 339 364 374 0
165 170 200 275 330 345 350 360 0
162 167 197 272 327 342 347 362 0
162 207 272 327 342 352 362 0
161 221 271 326 341 356 361 0
165 230 275 330 345 360 370 0
169 219 274 329 349 354 374 0
170 225 275 330 350 360 365 0
167 242 272 327 347 362 372 0
207 217 242 272 327 352 362 372 0
209 219 244 274 329 354 364 374 0
221 226 236 271 326 356 361 366 0
225 230 240 275 330 360 365 370 0
173 178 183 188 193 198 273 333 338 343 348 0
171 176 186 271 331 336 341 351 0
173 178 188 273 333 338 343 358 0
173 183 193 273 333 338 348 353 0
174 184 194 274 334 339 349 369 0
173 203 273 333 338 353 358 0
171 211 271 331 336 351 366 0
174 239 274 334 339 364 369 0
177 182 197 272 332 342 347 357 0
178 183 198 273 333 343 348 373 0
177 202 272 332 342 352 357 0
176 206 271 331 341 351 361 0
178 233 273 333 343 358 373 0
184 214 274 334 349 354 369 0
183 218 273 333 348 353 373 0
182 232 272 332 347 357 372 0
202 217 232 272 332 352 357 372 0
203 218 233 273 333 353 358 373 0
206 211 236 271 331 351 361 366 0
209 214 239 274 334 354 364 369 0
188 193 198 273 338 343 348 368 0
190 195 200 275 340 345 350 375 0
186 201 271 336 341 351 356 0
188 228 273 338 343 358 368 0
190 250 275 340 345 370 375 0
193 213 273 338 348 353 368 0
195 245 275 340 350 365 375 0
194 249 274 339 349 369 374 0
201 211 226 271 336 351 356 366 0
203 213 228 273 338 353 358 368 0
239 244 249 274 339 364 369 374 0
240 245 250 275 340 365 370 375 0
197 222 272 342 347 357 362 0
200 235 275 345 350 360 375 0
198 248 273 343 348 368 373 0
201 206 221 271 341 351 356 361 0
202 207 222 272 342 352 357 362 0
228 233 248 273 343 358 368 373 0
230 235 250 275 345 360 370 375 0
213 218 248 273 348 353 368 373 0
214 219 249 274 349 354 369 374 0
222 232 242 272 347 357 362 372 0
225 235 245 275 350 360 365 375 0
201 206 211 221 226 236 271 351 356 361 366 0
202 207 217 222 232 242 272 352 357 362 372 0
203 213 218 228 233 248 273 353 358 368 373 0
209 214 219 239 244 249 274 354 364 369 374 0
225 230 235 240 245 250 275 360 365 370 375 0
51 56 61 66 71 76 81 86 91 96 276 281 286 291 296 0
52 57 62 67 72 77 82 87 92 97 277 282 287 292 297 0
53 58 63 68 73 78 83 88 93 98 278 283 288 293 298 0
54 59 64 69 74 79 84 89 94 99 279 284 289 294 299 0
55 60 65 70 75 80 85 90 95 100 280 285 290 295 300 0
52 57 62 72 77 87 277 282 287 292 302 0
53 58 63 73 78 88 278 283 288 293 308 0
54 59 64 74 79 89 279 284 289 294 314 0
55 60 65 75 80 90 280 285 290 295 320 0
51 56 61 71 76 86 276 281 286 291 321 0
54 59 64 74 79 89 279 284 289 294 329 0
52 57 62 72 77 87 277 282 287 292 332 0
55 60 65 75 80 90 280 285 290 295 340 0
53 58 63 73 78 88 278 283 288 293 343 0
51 56 61 71 76 86 276 281 286 291 346 0
53 58 63 73 78 88 278 283 288 293 353 0
55 60 65 75 80 90 280 285 290 295 360 0
52 57 62 72 77 87 277 282 287 292 362 0
54 59 64 74 79 89 279 284 289 294 369 0
51 56 61 71 76 86 276 281 286 291 371 0
53 58 68 73 83 93 278 283 288 298 303 0
54 59 69 74 84 94 279 284 289 299 309 0
55 60 70 75 85 95 280 285 290 300 315 0
51 56 66 71 81 91 276 281 286 296 316 0
52 57 67 72 82 92 277 282 287 297 322 0
52 57 67 72 82 92 277 282 287 297 327 0
55 60 70 75 85 95 280 285 290 300 335 0
53 58 68 73 83 93 278 283 288 298 338 0
51 56 66 71 81 91 276 281 286 296 341 0
54 59 69 74 84 94 279 284 289 299 349 0
55 60 70 75 85 95 280 285 290 300 355 0
52 57 67 72 82 92 277 282 287 297 357 0
54 59 69 74 84 94 279 284 289 299 364 0
51 56 66 71 81 91 276 281 286 296 366 0
53 58 68 73 83 93 278 283 288 298 373 0
53 58 73 103 278 283 288 303 308 0
52 57 72 117 277 282 287 302 322 0
52 57 72 277 282 287 302 327 0
53 58 73 278 283 288 303 343 0
53 58 73 278 283 288 303 353 0
52 57 72 277 282 287 302 357 0
54 59 74 124 279 284 289 309 314 0
54 59 74 279 284 289 309 329 0
53 58 73 278 283 288 308 338 0
54 59 74 279 284 289 309 369 0
53 58 73 278 283 288 308 373 0
55 60 75 140 280 285 290 315 320 0
55 60 75 280 285 290 315 340 0
54 59 74 279 284 289 314 349 0
55 60 75 280 285 290 315 360 0
54 59 74 279 284 289 314 364 0
51 56 71 146 276 281 286 316 321 0
55 60 75 280 285 290 320 335 0
51 56 71 276 281 286 316 346 0
55 60 75 280 285 290 320 355 0
51 56 71 276 281 286 316 371 0
52 57 72 277 282 287 322 332 0
51 56 71 276 281 286 321 341 0
52 57 72 277 282 287 322 362 0
51 56 71 276 281 286 321 366 0
52 57 72 152 277 282 287 327 332 0
54 59 74 169 279 284 289 329 349 0
52 57 72 277 282 287 327 362 0
54 59 74 279 284 289 329 364 0
55 60 75 175 280 285 290 335 340 0
52 57 72 277 282 287 332 357 0
55 60 75 280 285 290 335 360 0
53 58 73 188 278 283 288 338 343 0
53 58 73 278 283 288 338 353 0
55 60 75 280 285 290 340 355 0
51 56 71 196 276 281 286 341 346 0
51 56 71 276 281 286 341 371 0
53 58 73 278 283 288 343 373 0
51 56 71 276 281 286 346 366 0
54 59 74 279 284 289 349 369 0
55 60 75 205 280 285 290 355 360 0
53 58 73 218 278 283 288 353 373 0
52 57 72 222 277 282 287 357 362 0
54 59 74 239 279 284 289 364 369 0
51 56 71 246 276 281 286 366 371 0
54 64 69 79 84 99 279 284 294 299 304 0
55 65 70 80 85 100 280 285 295 300 310 0
51 61 66 76 81 96 276 281 291 296 311 0
52 62 67 77 82 97 277 282 292 297 317 0
53 63 68 78 83 98 278 283 293 298 323 0
55 65 70 80 85 100 280 285 295 300 330 0
53 63 68 78 83 98 278 283 293 298 333 0
51 61 66 76 81 96 276 281 291 296 336 0
54 64 69 79 84 99 279 284 294 299 344 0
52 62 67 77 82 97 277 282 292 297 347 0
52 62 67 77 82 97 277 282 292 297 352 0
54 64 69 79 84 99 279 284 294 299 359 0
51 61 66 76 81 96 276 281 291 296 361 0
53 63 68 78 83 98 278 283 293 298 368 0
55 65 70 80 85 100 280 285 295 300 375 0
54 64 79 109 279 284 294 304 314 0
52 62 77 112 277 282 292 302 317 0
54 64 79 279 284 294 304 329 0
52 62 77 277 282 292 302 347 0
52 62 77 277 282 292 302 352 0
54 64 79 279 284 294 304 369 0
55 65 80 130 280 285 295 310 320 0
53 63 78 133 278 283 293 308 323 0
53 63 78 278 283 293 308 333 0
55 65 80 280 285 295 310 340 0
55 65 80 280 285 295 310 360 0
53 63 78 278 283 293 308 368 0
51 61 76 141 276 281 291 311 321 0
54 64 79 279 284 294 314 344 0
51 61 76 276 281 291 311 346 0
54 64 79 279 284 294 314 359 0
51 61 76 276 281 291 311 371 0
55 65 80 280 285 295 320 330 0
52 62 77 277 282 292 317 332 0
52 62 77 277 282 292 317 362 0
55 65 80 280 285 295 320 375 0
51 61 76 276 281 291 321 336 0
53 63 78 278 283 293 323 343 0
53 63 78 278 283 293 323 353 0
51 61 76 276 281 291 321 361 0
55 65 80 160 280 285 295 330 340 0
54 64 79 164 279 284 294 329 344 0
54 64 79 279 284 294 329 359 0
55 65 80 280 285 295 330 360 0
53 63 78 178 278 283 293 333 343 0
52 62 77 182 277 282 292 332 347 0
52 62 77 277 282 292 332 352 0
53 63 78 278 283 293 333 353 0
51 61 76 191 276 281 291 336 346 0
51 61 76 276 281 291 336 371 0
55 65 80 280 285 295 340 375 0
53 63 78 278 283 293 343 368 0
54 64 79 279 284 294 344 369 0
51 61 76 276 281 291 346 361 0
52 62 77 277 282 292 347 362 0
52 62 77 207 277 282 292 352 362 0
53 63 78 213 278 283 293 353 368 0
54 64 79 229 279 284 294 359 369 0
55 65 80 235 280 285 295 360 375 0
51 61 76 241 276 281 291 361 371 0
54 69 84 104 279 284 299 304 309 0
53 68 83 118 278 283 298 303 323 0
53 68 83 278 283 298 303 333 0
54 69 84 279 284 299 304 349 0
54 69 84 279 284 299 304 364 0
53 68 83 278 283 298 303 368 0
55 70 85 125 280 285 300 310 315 0
55 70 85 280 285 300 310 335 0
54 69 84 279 284 299 309 344 0
55 70 85 280 285 300 310 355 0
54 69 84 279 284 299 309 359 0
51 66 81 136 276 281 296 311 316 0
55 70 85 280 285 300 315 330 0
51 66 81 276 281 296 311 341 0
51 66 81 276 281 296 311 366 0
55 70 85 280 285 300 315 375 0
52 67 82 147 277 282 297 317 322 0
52 67 82 277 282 297 317 327 0
51 66 81 276 281 296 316 336 0
52 67 82 277 282 297 317 357 0
51 66 81 276 281 296 316 361 0
53 68 83 278 283 298 323 338 0
52 67 82 277 282 297 322 347 0
52 67 82 277 282 297 322 352 0
53 68 83 278 283 298 323 373 0
55 70 85 155 280 285 300 330 335 0
52 67 82 167 277 282 297 327 347 0
52 67 82 277 282 297 327 352 0
55 70 85 280 285 300 330 355 0
53 68 83 173 278 283 298 333 338 0
53 68 83 278 283 298 333 373 0
55 70 85 280 285 300 335 375 0
51 66 81 186 276 281 296 336 341 0
51 66 81 276 281 296 336 366 0
53 68 83 278 283 298 338 368 0
54 69 84 199 279 284 299 344 349 0
51 66 81 276 281 296 341 361 0
54 69 84 279 284 299 344 364 0
52 67 82 277 282 297 347 357 0
54 69 84 279 284 299 349 359 0
52 67 82 202 277 282 297 352 357 0
55 70 85 220 280 285 300 355 375 0
54 69 84 224 279 284 299 359 364 0
51 66 81 236 276 281 296 361 366 0
53 68 83 248 278 283 298 368 373 0
54 104 109 124 279 284 304 309 314 0
53 103 118 133 278 283 303 308 323 0
54 104 279 284 304 309 329 0
53 103 278 283 303 308 333 0
53 103 278 283 303 308 368 0
54 104 279 284 304 309 369 0
54 109 279 284 304 314 349 0
54 109 279 284 304 314 364 0
52 112 117 147 277 282 302 317 322 0
52 112 277 282 302 317 327 0
52 112 277 282 302 317 357 0
53 118 278 283 303 323 343 0
52 117 277 282 302 322 347 0
52 117 277 282 302 322 352 0
53 118 278 283 303 323 353 0
52 167 277 282 302 327 347 0
54 169 279 284 304 329 349 0
52 277 282 302 327 352 0
54 279 284 304 329 364 0
53 178 278 283 303 333 343 0
53 278 283 303 333 353 0
53 278 283 303 343 368 0
52 277 282 302 347 357 0
54 279 284 304 349 369 0
52 202 277 282 302 352 357 0
53 213 278 283 303 353 368 0
54 239 279 284 304 364 369 0
55 125 130 140 280 285 310 315 320 0
55 125 280 285 310 315 340 0
54 124 279 284 309 314 344 0
54 124 279 284 309 314 359 0
55 125 280 285 310 315 360 0
55 130 280 285 310 320 335 0
55 130 280 285 310 320 355 0
53 133 278 283 308 323 338 0
53 133 278 283 308 323 373 0
54 164 279 284 309 329 344 0
54 279 284 309 329 359 0
53 173 278 283 308 333 338 0
55 175 280 285 310 335 340 0
55 280 285 310 335 360 0
53 278 283 308 333 373 0
55 280 285 310 340 355 0
53 278 283 308 338 368 0
54 279 284 309 344 369 0
55 205 280 285 310 355 360 0
54 229 279 284 309 359 369 0
53 248 278 283 308 368 373 0
51 136 141 146 276 281 311 316 321 0
55 140 280 285 315 320 330 0
51 136 276 281 311 316 346 0
51 136 276 281 311 316 371 0
55 140 280 285 315 320 375 0
51 141 276 281 311 321 341 0
51 141 276 281 311 321 366 0
55 160 280 285 315 330 340 0
55 280 285 315 330 360 0
55 280 285 315 340 375 0
51 196 276 281 311 341 346 0
54 199 279 284 314 344 349 0
54 279 284 314 344 364 0
51 276 281 311 341 371 0
54 279 284 314 349 359 0
51 276 281 311 346 366 0
54 224 279 284 314 359 364 0
55 235 280 285 315 360 375 0
51 246 276 281 311 366 371 0
52 147 277 282 317 322 332 0
51 146 276 281 316 321 336 0
51 146 276 281 316 321 361 0
52 147 277 282 317 322 362 0
52 152 277 282 317 327 332 0
55 155 280 285 320 330 335 0
55 280 285 320 330 355 0
52 277 282 317 327 362 0
52 277 282 317 332 357 0
55 280 285 320 335 375 0
51 191 276 281 316 336 346 0
51 276 281 316 336 371 0
51 276 281 316 346 361 0
55 220 280 285 320 355 375 0
52 222 277 282 317 357 362 0
51 241 276 281 316 361 371 0
52 182 277 282 322 332 347 0
52 277 282 322 332 352 0
51 186 276 281 321 336 341 0
53 188 278 283 323 338 343 0
53 278 283 323 338 353 0
51 276 281 321 336 366 0
51 276 281 321 341 361 0
53 278 283 323 343 373 0
52 277 282 322 347 362 0
52 207 277 282 322 352 362 0
53 218 278 283 323 353 373 0
51 236 276 281 321 361 366 0
55 155 160 175 280 285 330 335 340 0
52 152 167 182 277 282 327 332 347 0
52 152 277 282 327 332 352 0
55 155 280 285 330 335 360 0
55 160 280 285 330 340 355 0
54 164 169 199 279 284 329 344 349 0
54 164 279 284 329 344 364 0
54 169 279 284 329 349 359 0
52 167 277 282 327 347 362 0
55 205 280 285 330 355 360 0
52 207 277 282 327 352 362 0
54 224 279 284 329 359 364 0
53 173 178 188 278 283 333 338 343 0
53 173 278 283 333 338 353 0
55 175 280 285 335 340 375 0
53 178 278 283 333 343 373 0
52 182 277 282 332 347 357 0
52 202 277 282 332 352 357 0
53 218 278 283 333 353 373 0
55 235 280 285 335 360 375 0
51 186 191 196 276 281 336 341 346 0
53 188 278 283 338 343 368 0
51 186 276 281 336 341 371 0
51 191 276 281 336 346 366 0
53 213 278 283 338 353 368 0
55 220 280 285 340 355 375 0
51 246 276 281 336 366 371 0
51 196 276 281 341 346 361 0
54 199 279 284 344 349 369 0
54 239 279 284 344 364 369 0
51 241 276 281 341 361 371 0
53 248 278 283 343 368 373 0
52 222 277 282 347 357 362 0
54 229 279 284 349 359 369 0
51 236 276 281 346 361 366 0
52 202 207 222 277 282 352 357 362 0
55 205 220 235 280 285 355 360 375 0
53 213 218 248 278 283 353 368 373 0
54 224 229 239 279 284 359 364 369 0
51 236 241 246 276 281 361 366 371 0
60 65 70 90 95 100 280 290 295 300 305 0
56 61 66 86 91 96 276 286 291 296 306 0
57 62 67 87 92 97 277 287 292 297 312 0
58 63 68 88 93 98 278 288 293 298 318 0
59 64 69 89 94 99 279 289 294 299 324 0
58 63 68 88 93 98 278 288 293 298 328 0
56 61 66 86 91 96 276 286 291 296 331 0
59 64 69 89 94 99 279 289 294 299 339 0
57 62 67 87 92 97 277 287 292 297 342 0
60 65 70 90 95 100 280 290 295 300 350 0
59 64 69 89 94 99 279 289 294 299 354 0
56 61 66 86 91 96 276 286 291 296 356 0
58 63 68 88 93 98 278 288 293 298 363 0
60 65 70 90 95 100 280 290 295 300 370 0
57 62 67 87 92 97 277 287 292 297 372 0
57 62 87 107 277 287 292 302 312 0
60 65 90 115 280 290 295 305 320 0
60 65 90 280 290 295 305 340 0
57 62 87 277 287 292 302 342 0
60 65 90 280 290 295 305 360 0
57 62 87 277 287 292 302 372 0
58 63 88 128 278 288 293 308 318 0
56 61 86 131 276 286 291 306 321 0
58 63 88 278 288 293 308 328 0
56 61 86 276 286 291 306 346 0
58 63 88 278 288 293 308 363 0
56 61 86 276 286 291 306 371 0
59 64 89 144 279 289 294 314 324 0
57 62 87 277 287 292 312 332 0
59 64 89 279 289 294 314 339 0
59 64 89 279 289 294 314 354 0
57 62 87 277 287 292 312 362 0
58 63 88 278 288 293 318 343 0
60 65 90 280 290 295 320 350 0
58 63 88 278 288 293 318 353 0
60 65 90 280 290 295 320 370 0
59 64 89 279 289 294 324 329 0
56 61 86 276 286 291 321 331 0
56 61 86 276 286 291 321 356 0
59 64 89 279 289 294 324 369 0
59 64 89 159 279 289 294 329 339 0
58 63 88 163 278 288 293 328 343 0
58 63 88 278 288 293 328 353 0
59 64 89 279 289 294 329 354 0
57 62 87 177 277 287 292 332 342 0
56 61 86 181 276 286 291 331 346 0
56 61 86 276 286 291 331 371 0
57 62 87 277 287 292 332 372 0
60 65 90 195 280 290 295 340 350 0
59 64 89 279 289 294 339 369 0
60 65 90 280 290 295 340 370 0
57 62 87 277 287 292 342 362 0
58 63 88 278 288 293 343 363 0
56 61 86 276 286 291 346 356 0
60 65 90 280 290 295 350 360 0
58 63 88 208 278 288 293 353 363 0
59 64 89 214 279 289 294 354 369 0
60 65 90 230 280 290 295 360 370 0
56 61 86 231 276 286 291 356 371 0
57 62 87 242 277 287 292 362 372 0
60 70 95 110 280 290 300 305 315 0
58 68 93 113 278 288 298 303 318 0
58 68 93 278 288 298 303 328 0
60 70 95 280 290 300 305 335 0
60 70 95 280 290 300 305 355 0
58 68 93 278 288 298 303 363 0
56 66 91 126 276 286 296 306 316 0
59 69 94 134 279 289 299 309 324 0
59 69 94 279 289 299 309 339 0
56 66 91 276 286 296 306 341 0
59 69 94 279 289 299 309 354 0
56 66 91 276 286 296 306 366 0
57 67 92 142 277 287 297 312 322 0
57 67 92 277 287 297 312 327 0
60 70 95 280 290 300 315 350 0
57 67 92 277 287 297 312 357 0
60 70 95 280 290 300 315 370 0
56 66 91 276 286 296 316 331 0
58 68 93 278 288 298 318 338 0
56 66 91 276 286 296 316 356 0
58 68 93 278 288 298 318 373 0
57 67 92 277 287 297 322 342 0
59 69 94 279 289 299 324 349 0
59 69 94 279 289 299 324 364 0
57 67 92 277 287 297 322 372 0
58 68 93 158 278 288 298 328 338 0
57 67 92 162 277 287 297 327 342 0
57 67 92 277 287 297 327 372 0
58 68 93 278 288 298 328 373 0
56 66 91 176 276 286 296 331 341 0
60 70 95 185 280 290 300 335 350 0
56 66 91 276 286 296 331 366 0
60 70 95 280 290 300 335 370 0
59 69 94 194 279 289 299 339 349 0
58 68 93 278 288 298 338 363 0
59 69 94 279 289 299 339 364 0
56 66 91 276 286 296 341 356 0
57 67 92 277 287 297 342 357 0
59 69 94 279 289 299 349 354 0
60 70 95 280 290 300 350 355 0
59 69 94 209 279 289 299 354 364 0
60 70 95 215 280 290 300 355 370 0
56 66 91 226 276 286 296 356 366 0
57 67 92 232 277 287 297 357 372 0
58 68 93 243 278 288 298 363 373 0
58 103 113 128 278 288 303 308 318 0
58 103 278 288 303 308 328 0
58 103 278 288 303 308 363 0
60 110 115 140 280 290 305 315 320 0
57 107 117 142 277 287 302 312 322 0
57 107 277 287 302 312 327 0
60 110 280 290 305 315 340 0
57 107 277 287 302 312 357 0
60 110 280 290 305 315 360 0
60 115 280 290 305 320 335 0
58 113 278 288 303 318 343 0
58 113 278 288 303 318 353 0
60 115 280 290 305 320 355 0
57 117 277 287 302 322 342 0
57 117 277 287 302 322 372 0
57 162 277 287 302 327 342 0
58 163 278 288 303 328 343 0
58 278 288 303 328 353 0
57 277 287 302 327 372 0
60 175 280 290 305 335 340 0
60 280 290 305 335 360 0
60 280 290 305 340 355 0
57 277 287 302 342 357 0
58 278 288 303 343 363 0
60 205 280 290 305 355 360 0
58 208 278 288 303 353 363 0
57 232 277 287 302 357 372 0
59 124 134 144 279 289 309 314 324 0
59 124 279 289 309 314 339 0
59 124 279 289 309 314 354 0
56 126 131 146 276 286 306 316 321 0
58 128 278 288 308 318 338 0
56 126 276 286 306 316 346 0
56 126 276 286 306 316 371 0
58 128 278 288 308 318 373 0
59 134 279 289 309 324 329 0
56 131 276 286 306 321 341 0
56 131 276 286 306 321 366 0
59 134 279 289 309 324 369 0
58 158 278 288 308 328 338 0
59 159 279 289 309 329 339 0
59 279 289 309 329 354 0
58 278 288 308 328 373 0
58 278 288 308 338 363 0
59 279 289 309 339 369 0
56 196 276 286 306 341 346 0
56 276 286 306 341 371 0
56 276 286 306 346 366 0
59 214 279 289 309 354 369 0
58 243 278 288 308 363 373 0
56 246 276 286 306 366 371 0
60 140 280 290 315 320 350 0
60 140 280 290 315 320 370 0
57 142 277 287 312 322 332 0
59 144 279 289 314 324 349 0
57 142 277 287 312 322 362 0
59 144 279 289 314 324 364 0
57 152 277 287 312 327 332 0
57 277 287 312 327 362 0
57 277 287 312 332 357 0
59 194 279 289 314 339 349 0
60 195 280 290 315 340 350 0
59 279 289 314 339 364 0
60 280 290 315 340 370 0
59 279 289 314 349 354 0
60 280 290 315 350 360 0
59 209 279 289 314 354 364 0
57 222 277 287 312 357 362 0
60 230 280 290 315 360 370 0
56 146 276 286 316 321 331 0
56 146 276 286 316 321 356 0
56 181 276 286 316 331 346 0
60 185 280 290 320 335 350 0
60 280 290 320 335 370 0
56 276 286 316 331 371 0
58 188 278 288 318 338 343 0
58 278 288 318 338 353 0
58 278 288 318 343 373 0
60 280 290 320 350 355 0
56 276 286 316 346 356 0
60 215 280 290 320 355 370 0
58 218 278 288 318 353 373 0
56 231 276 286 316 356 371 0
59 169 279 289 324 329 349 0
59 279 289 324 329 364 0
56 176 276 286 321 331 341 0
57 177 277 287 322 332 342 0
56 276 286 321 331 366 0
57 277 287 322 332 372 0
56 276 286 321 341 356 0
57 277 287 322 342 362 0
59 279 289 324 349 369 0
56 226 276 286 321 356 366 0
59 239 279 289 324 364 369 0
57 242 277 287 322 362 372 0
57 152 162 177 277 287 327 332 342 0
57 152 277 287 327 332 372 0
58 158 163 188 278 288 328 338 343 0
59 159 169 194 279 289 329 339 349 0
58 158 278 288 328 338 353 0
59 159 279 289 329 339 364 0
57 162 277 287 327 342 362 0
58 163 278 288 328 343 373 0
59 169 279 289 329 349 354 0
59 209 279 289 329 354 364 0
58 218 278 288 328 353 373 0
57 242 277 287 327 362 372 0
60 175 185 195 280 290 335 340 350 0
60 175 280 290 335 340 370 0
56 176 181 196 276 286 331 341 346 0
57 177 277 287 332 342 357 0
56 176 276 286 331 341 371 0
60 185 280 290 335 350 360 0
56 181 276 286 331 346 366 0
60 230 280 290 335 360 370 0
57 232 277 287 332 357 372 0
56 246 276 286 331 366 371 0
58 188 278 288 338 343 363 0
60 195 280 290 340 350 355 0
59 194 279 289 339 349 369 0
58 208 278 288 338 353 363 0
60 215 280 290 340 355 370 0
59 239 279 289 339 364 369 0
56 196 276 286 341 346 356 0
57 222 277 287 342 357 362 0
56 231 276 286 341 356 371 0
58 243 278 288 343 363 373 0
60 205 280 290 350 355 360 0
59 214 279 289 349 354 369 0
56 226 276 286 346 356 366 0
60 205 215 230 280 290 355 360 370 0
59 209 214 239 279 289 354 364 369 0
58 208 218 243 278 288 353 363 373 0
57 222 232 242 277 287 357 362 372 0
56 226 231 246 276 286 356 366 371 0
65 70 100 105 280 295 300 305 310 0
64 69 99 119 279 294 299 304 324 0
65 70 100 280 295 300 305 330 0
64 69 99 279 294 299 304 339 0
64 69 99 279 294 299 304 354 0
65 70 100 280 295 300 305 375 0
61 66 96 121 276 291 296 306 311 0
61 66 96 276 291 296 306 336 0
65 70 100 280 295 300 310 350 0
61 66 96 276 291 296 306 361 0
65 70 100 280 295 300 310 370 0
62 67 97 137 277 292 297 312 317 0
61 66 96 276 291 296 311 331 0
62 67 97 277 292 297 312 347 0
62 67 97 277 292 297 312 352 0
61 66 96 276 291 296 311 356 0
63 68 98 148 278 293 298 318 323 0
63 68 98 278 293 298 318 333 0
62 67 97 277 292 297 317 342 0
63 68 98 278 293 298 318 368 0
62 67 97 277 292 297 317 372 0
63 68 98 278 293 298 323 328 0
64 69 99 279 294 299 324 344 0
64 69 99 279 294 299 324 359 0
63 68 98 278 293 298 323 363 0
63 68 98 153 278 293 298 328 333 0
65 70 100 170 280 295 300 330 350 0
63 68 98 278 293 298 328 368 0
65 70 100 280 295 300 330 370 0
61 66 96 171 276 291 296 331 336 0
61 66 96 276 291 296 331 361 0
63 68 98 278 293 298 333 363 0
64 69 99 189 279 294 299 339 344 0
61 66 96 276 291 296 336 356 0
64 69 99 279 294 299 339 359 0
62 67 97 197 277 292 297 342 347 0
62 67 97 277 292 297 342 352 0
64 69 99 279 294 299 344 354 0
62 67 97 277 292 297 347 372 0
65 70 100 280 295 300 350 375 0
64 69 99 204 279 294 299 354 359 0
62 67 97 217 277 292 297 352 372 0
61 66 96 221 276 291 296 356 361 0
63 68 98 238 278 293 298 363 368 0
65 70 100 250 280 295 300 370 375 0
65 105 115 130 280 295 305 310 320 0
65 105 280 295 305 310 340 0
65 105 280 295 305 310 360 0
62 107 112 137 277 292 302 312 317 0
64 109 119 144 279 294 304 314 324 0
64 109 279 294 304 314 339 0
62 107 277 292 302 312 347 0
62 107 277 292 302 312 352 0
64 109 279 294 304 314 354 0
65 115 280 295 305 320 330 0
62 112 277 292 302 317 342 0
62 112 277 292 302 317 372 0
65 115 280 295 305 320 375 0
64 119 279 294 304 324 329 0
64 119 279 294 304 324 369 0
64 159 279 294 304 329 339 0
65 160 280 295 305 330 340 0
64 279 294 304 329 354 0
65 280 295 305 330 360 0
64 279 294 304 339 369 0
65 280 295 305 340 375 0
62 197 277 292 302 342 347 0
62 277 292 302 342 352 0
62 277 292 302 347 372 0
64 214 279 294 304 354 369 0
62 217 277 292 302 352 372 0
65 235 280 295 305 360 375 0
61 121 131 141 276 291 306 311 321 0
61 121 276 291 306 311 346 0
61 121 276 291 306 311 371 0
63 128 133 148 278 293 308 318 323 0
63 128 278 293 308 318 333 0
65 130 280 295 310 320 350 0
63 128 278 293 308 318 368 0
65 130 280 295 310 320 370 0
63 133 278 293 308 323 328 0
61 131 276 291 306 321 336 0
61 131 276 291 306 321 361 0
63 133 278 293 308 323 363 0
63 153 278 293 308 328 333 0
63 278 293 308 328 368 0
63 278 293 308 333 363 0
61 191 276 291 306 336 346 0
65 195 280 295 310 340 350 0
65 280 295 310 340 370 0
61 276 291 306 336 371 0
65 280 295 310 350 360 0
61 276 291 306 346 361 0
65 230 280 295 310 360 370 0
63 238 278 293 308 363 368 0
61 241 276 291 306 361 371 0
62 137 277 292 312 317 332 0
62 137 277 292 312 317 362 0
61 141 276 291 311 321 331 0
64 144 279 294 314 324 344 0
61 141 276 291 311 321 356 0
64 144 279 294 314 324 359 0
61 181 276 291 311 331 346 0
62 182 277 292 312 332 347 0
62 277 292 312 332 352 0
61 276 291 311 331 371 0
64 189 279 294 314 339 344 0
64 279 294 314 339 359 0
64 279 294 314 344 354 0
61 276 291 311 346 356 0
62 277 292 312 347 362 0
64 204 279 294 314 354 359 0
62 207 277 292 312 352 362 0
61 231 276 291 311 356 371 0
63 148 278 293 318 323 343 0
63 148 278 293 318 323 353 0
65 170 280 295 320 330 350 0
65 280 295 320 330 370 0
62 177 277 292 317 332 342 0
63 178 278 293 318 333 343 0
63 278 293 318 333 353 0
62 277 292 317 332 372 0
62 277 292 317 342 362 0
63 278 293 318 343 368 0
65 280 295 320 350 375 0
63 213 278 293 318 353 368 0
62 242 277 292 317 362 372 0
65 250 280 295 320 370 375 0
63 163 278 293 323 328 343 0
64 164 279 294 324 329 344 0
63 278 293 323 328 353 0
64 279 294 324 329 359 0
61 171 276 291 321 331 336 0
61 276 291 321 331 361 0
61 276 291 321 336 356 0
63 278 293 323 343 363 0
64 279 294 324 344 369 0
63 208 278 293 323 353 363 0
61 221 276 291 321 356 361 0
64 229 279 294 324 359 369 0
63 153 163 178 278 293 328 333 343 0
63 153 278 293 328 333 353 0
64 159 164 189 279 294 329 339 344 0
65 160 170 195 280 295 330 340 350 0
64 159 279 294 329 339 359 0
65 160 280 295 330 340 370 0
64 164 279 294 329 344 354 0
63 163 278 293 328 343 368 0
65 170 280 295 330 350 360 0
64 204 279 294 329 354 359 0
63 213 278 293 328 353 368 0
65 230 280 295 330 360 370 0
61 171 181 191 276 291 331 336 346 0
61 171 276 291 331 336 371 0
62 177 182 197 277 292 332 342 347 0
62 177 277 292 332 342 352 0
63 178 278 293 333 343 363 0
61 181 276 291 331 346 361 0
62 182 277 292 332 347 372 0
63 208 278 293 333 353 363 0
62 217 277 292 332 352 372 0
61 241 276 291 331 361 371 0
64 189 279 294 339 344 369 0
61 191 276 291 336 346 356 0
65 195 280 295 340 350 375 0
64 229 279 294 339 359 369 0
61 231 276 291 336 356 371 0
65 250 280 295 340 370 375 0
62 197 277 292 342 347 362 0
62 207 277 292 342 352 362 0
64 214 279 294 344 354 369 0
63 238 278 293 343 363 368 0
61 221 276 291 346 356 361 0
65 235 280 295 350 360 375 0
62 242 277 292 347 362 372 0
64 204 214 229 279 294 354 359 369 0
63 208 213 238 278 293 353 363 368 0
62 207 217 242 277 292 352 362 372 0
61 221 231 241 276 291 356 361 371 0
65 230 235 250 280 295 360 370 375 0
70 105 110 125 280 300 305 310 315 0
69 104 119 134 279 299 304 309 324 0
70 105 280 300 305 310 335 0
69 104 279 299 304 309 339 0
69 104 279 299 304 309 354 0
70 105 280 300 305 310 355 0
70 110 280 300 305 315 330 0
70 110 280 300 305 315 375 0
68 113 118 148 278 298 303 318 323 0
68 113 278 298 303 318 333 0
68 113 278 298 303 318 368 0
68 118 278 298 303 323 328 0
69 119 279 299 304 324 349 0
68 118 278 298 303 323 363 0
69 119 279 299 304 324 364 0
68 153 278 298 303 328 333 0
70 155 280 300 305 330 335 0
70 280 300 305 330 355 0
68 278 298 303 328 368 0
68 278 298 303 333 363 0
70 280 300 305 335 375 0
69 194 279 299 304 339 349 0
69 279 299 304 339 364 0
69 279 299 304 349 354 0
69 209 279 299 304 354 364 0
70 220 280 300 305 355 375 0
68 238 278 298 303 363 368 0
66 121 126 136 276 296 306 311 316 0
66 121 276 296 306 311 341 0
70 125 280 300 310 315 350 0
66 121 276 296 306 311 366 0
70 125 280 300 310 315 370 0
66 126 276 296 306 316 336 0
66 126 276 296 306 316 361 0
69 134 279 299 309 324 344 0
69 134 279 299 309 324 359 0
70 185 280 300 310 335 350 0
70 280 300 310 335 370 0
66 186 276 296 306 336 341 0
69 189 279 299 309 339 344 0
69 279 299 309 339 359 0
66 276 296 306 336 366 0
69 279 299 309 344 354 0
66 276 296 306 341 361 0
70 280 300 310 350 355 0
69 204 279 299 309 354 359 0
70 215 280 300 310 355 370 0
66 236 276 296 306 361 366 0
67 137 142 147 277 297 312 317 322 0
67 137 277 297 312 317 327 0
66 136 276 296 311 316 331 0
66 136 276 296 311 316 356 0
67 137 277 297 312 317 357 0
67 142 277 297 312 322 347 0
67 142 277 297 312 322 352 0
67 167 277 297 312 327 347 0
70 170 280 300 315 330 350 0
67 277 297 312 327 352 0
70 280 300 315 330 370 0
66 176 276 296 311 331 341 0
66 276 296 311 331 366 0
66 276 296 311 341 356 0
67 277 297 312 347 357 0
70 280 300 315 350 375 0
67 202 277 297 312 352 357 0
66 226 276 296 311 356 366 0
70 250 280 300 315 370 375 0
68 148 278 298 318 323 338 0
67 147 277 297 317 322 342 0
67 147 277 297 317 322 372 0
68 148 278 298 318 323 373 0
67 162 277 297 317 327 342 0
67 277 297 317 327 372 0
66 171 276 296 316 331 336 0
68 173 278 298 318 333 338 0
66 276 296 316 331 361 0
68 278 298 318 333 373 0
66 276 296 316 336 356 0
68 278 298 318 338 368 0
67 277 297 317 342 357 0
66 221 276 296 316 356 361 0
67 232 277 297 317 357 372 0
68 248 278 298 318 368 373 0
68 158 278 298 323 328 338 0
68 278 298 323 328 373 0
68 278 298 323 338 363 0
67 197 277 297 322 342 347 0
69 199 279 299 324 344 349 0
67 277 297 322 342 352 0
69 279 299 324 344 364 0
69 279 299 324 349 359 0
67 277 297 322 347 372 0
67 217 277 297 322 352 372 0
69 224 279 299 324 359 364 0
68 243 278 298 323 363 373 0
68 153 158 173 278 298 328 333 338 0
70 155 170 185 280 300 330 335 350 0
70 155 280 300 330 335 370 0
68 153 278 298 328 333 373 0
68 158 278 298 328 338 368 0
67 162 167 197 277 297 327 342 347 0
67 162 277 297 327 342 352 0
70 170 280 300 330 350 355 0
67 167 277 297 327 347 372 0
70 215 280 300 330 355 370 0
67 217 277 297 327 352 372 0
68 248 278 298 328 368 373 0
66 171 176 186 276 296 331 336 341 0
68 173 278 298 333 338 363 0
66 171 276 296 331 336 366 0
66 176 276 296 331 341 361 0
70 185 280 300 335 350 375 0
66 236 276 296 331 361 366 0
68 243 278 298 333 363 373 0
70 250 280 300 335 370 375 0
69 189 194 199 279 299 339 344 349 0
66 186 276 296 336 341 356 0
69 189 279 299 339 344 364 0
69 194 279 299 339 349 359 0
69 224 279 299 339 359 364 0
66 226 276 296 336 356 366 0
68 238 278 298 338 363 368 0
69 199 279 299 344 349 354 0
67 197 277 297 342 347 357 0
67 202 277 297 342 352 357 0
69 209 279 299 344 354 364 0
66 221 276 296 341 356 361 0
69 204 279 299 349 354 359 0
70 220 280 300 350 355 375 0
67 232 277 297 347 357 372 0
69 204 209 224 279 299 354 359 364 0
67 202 217 232 277 297 352 357 372 0
70 215 220 250 280 300 355 370 375 0
66 221 226 236 276 296 356 361 366 0
68 238 243 248 278 298 363 368 373 0
105 110 115 125 130 140 280 305 310 315 320 0
104 109 119 124 134 144 279 304 309 314 324 0
104 109 124 279 304 309 314 339 0
105 110 125 280 305 310 315 340 0
104 109 124 279 304 309 314 354 0
105 110 125 280 305 310 315 360 0
103 113 118 128 133 148 278 303 308 318 323 0
103 113 128 278 303 308 318 333 0
105 115 130 280 305 310 320 335 0
105 115 130 280 305 310 320 355 0
103 113 128 278 303 308 318 368 0
103 118 133 278 303 308 323 328 0
104 119 134 279 304 309 324 329 0
103 118 133 278 303 308 323 363 0
104 119 134 279 304 309 324 369 0
103 153 278 303 308 328 333 0
104 159 279 304 309 329 339 0
104 279 304 309 329 354 0
103 278 303 308 328 368 0
105 175 280 305 310 335 340 0
105 280 305 310 335 360 0
103 278 303 308 333 363 0
105 280 305 310 340 355 0
104 279 304 309 339 369 0
105 205 280 305 310 355 360 0
104 214 279 304 309 354 369 0
103 238 278 303 308 363 368 0
107 112 117 137 142 147 277 302 312 317 322 0
107 112 137 277 302 312 317 327 0
110 115 140 280 305 315 320 330 0
107 112 137 277 302 312 317 357 0
110 115 140 280 305 315 320 375 0
107 117 142 277 302 312 322 347 0
109 119 144 279 304 314 324 349 0
107 117 142 277 302 312 322 352 0
109 119 144 279 304 314 324 364 0
110 160 280 305 315 330 340 0
107 167 277 302 312 327 347 0
107 277 302 312 327 352 0
110 280 305 315 330 360 0
109 194 279 304 314 339 349 0
109 279 304 314 339 364 0
110 280 305 315 340 375 0
109 279 304 314 349 354 0
107 277 302 312 347 357 0
107 202 277 302 312 352 357 0
109 209 279 304 314 354 364 0
110 235 280 305 315 360 375 0
112 117 147 277 302 317 322 342 0
113 118 148 278 303 318 323 343 0
113 118 148 278 303 318 323 353 0
112 117 147 277 302 317 322 372 0
115 155 280 305 320 330 335 0
112 162 277 302 317 327 342 0
115 280 305 320 330 355 0
112 277 302 317 327 372 0
113 178 278 303 318 333 343 0
113 278 303 318 333 353 0
115 280 305 320 335 375 0
112 277 302 317 342 357 0
113 278 303 318 343 368 0
113 213 278 303 318 353 368 0
115 220 280 305 320 355 375 0
112 232 277 302 317 357 372 0
118 163 278 303 323 328 343 0
119 169 279 304 324 329 349 0
118 278 303 323 328 353 0
119 279 304 324 329 364 0
117 197 277 302 322 342 347 0
117 277 302 322 342 352 0
118 278 303 323 343 363 0
119 279 304 324 349 369 0
117 277 302 322 347 372 0
118 208 278 303 323 353 363 0
117 217 277 302 322 352 372 0
119 239 279 304 324 364 369 0
155 160 175 280 305 330 335 340 0
153 163 178 278 303 328 333 343 0
153 278 303 328 333 353 0
155 280 305 330 335 360 0
159 169 194 279 304 329 339 349 0
160 280 305 330 340 355 0
159 279 304 329 339 364 0
162 167 197 277 302 327 342 347 0
162 277 302 327 342 352 0
163 278 303 328 343 368 0
169 279 304 329 349 354 0
167 277 302 327 347 372 0
205 280 305 330 355 360 0
209 279 304 329 354 364 0
213 278 303 328 353 368 0
217 277 302 327 352 372 0
175 280 305 335 340 375 0
178 278 303 333 343 363 0
208 278 303 333 353 363 0
235 280 305 335 360 375 0
194 279 304 339 349 369 0
220 280 305 340 355 375 0
239 279 304 339 364 369 0
197 277 302 342 347 357 0
202 277 302 342 352 357 0
238 278 303 343 363 368 0
214 279 304 349 354 369 0
232 277 302 347 357 372 0
202 217 232 277 302 352 357 372 0
205 220 235 280 305 355 360 375 0
208 213 238 278 303 353 363 368 0
209 214 239 279 304 354 364 369 0
121 126 131 136 141 146 276 306 311 316 321 0
121 126 136 276 306 311 316 346 0
125 130 140 280 310 315 320 350 0
125 130 140 280 310 315 320 370 0
121 126 136 276 306 311 316 371 0
121 131 141 276 306 311 321 341 0
124 134 144 279 309 314 324 344 0
124 134 144 279 309 314 324 359 0
121 131 141 276 306 311 321 366 0
124 189 279 309 314 339 344 0
125 195 280 310 315 340 350 0
124 279 309 314 339 359 0
125 280 310 315 340 370 0
121 196 276 306 311 341 346 0
124 279 309 314 344 354 0
121 276 306 311 341 371 0
125 280 310 315 350 360 0
121 276 306 311 346 366 0
124 204 279 309 314 354 359 0
125 230 280 310 315 360 370 0
121 246 276 306 311 366 371 0
126 131 146 276 306 316 321 336 0
128 133 148 278 308 318 323 338 0
126 131 146 276 306 316 321 361 0
128 133 148 278 308 318 323 373 0
128 173 278 308 318 333 338 0
130 185 280 310 320 335 350 0
130 280 310 320 335 370 0
128 278 308 318 333 373 0
126 191 276 306 316 336 346 0
128 278 308 318 338 368 0
126 276 306 316 336 371 0
130 280 310 320 350 355 0
126 276 306 316 346 361 0
130 215 280 310 320 355 370 0
126 241 276 306 316 361 371 0
128 248 278 308 318 368 373 0
133 158 278 308 323 328 338 0
134 164 279 309 324 329 344 0
134 279 309 324 329 359 0
133 278 308 323 328 373 0
131 186 276 306 321 336 341 0
133 278 308 323 338 363 0
131 276 306 321 336 366 0
131 276 306 321 341 361 0
134 279 309 324 344 369 0
134 229 279 309 324 359 369 0
131 236 276 306 321 361 366 0
133 243 278 308 323 363 373 0
153 158 173 278 308 328 333 338 0
153 278 308 328 333 373 0
159 164 189 279 309 329 339 344 0
159 279 309 329 339 359 0
158 278 308 328 338 368 0
164 279 309 329 344 354 0
204 279 309 329 354 359 0
248 278 308 328 368 373 0
175 185 195 280 310 335 340 350 0
173 278 308 333 338 363 0
175 280 310 335 340 370 0
185 280 310 335 350 360 0
230 280 310 335 360 370 0
243 278 308 333 363 373 0
186 191 196 276 306 336 341 346 0
189 279 309 339 344 369 0
186 276 306 336 341 371 0
195 280 310 340 350 355 0
191 276 306 336 346 366 0
215 280 310 340 355 370 0
229 279 309 339 359 369 0
238 278 308 338 363 368 0
246 276 306 336 366 371 0
196 276 306 341 346 361 0
214 279 309 344 354 369 0
241 276 306 341 361 371 0
205 280 310 350 355 360 0
236 276 306 346 361 366 0
204 214 229 279 309 354 359 369 0
205 215 230 280 310 355 360 370 0
236 241 246 276 306 361 366 371 0
238 243 248 278 308 363 368 373 0
136 141 146 276 311 316 321 331 0
137 142 147 277 312 317 322 332 0
136 141 146 276 311 316 321 356 0
137 142 147 277 312 317 322 362 0
137 152 277 312 317 327 332 0
140 170 280 315 320 330 350 0
137 277 312 317 327 362 0
140 280 315 320 330 370 0
136 181 276 311 316 331 346 0
137 277 312 317 332 357 0
136 276 311 316 331 371 0
136 276 311 316 346 356 0
140 280 315 320 350 375 0
137 222 277 312 317 357 362 0
136 231 276 311 316 356 371 0
140 250 280 315 320 370 375 0
141 176 276 311 321 331 341 0
142 182 277 312 322 332 347 0
142 277 312 322 332 352 0
141 276 311 321 331 366 0
144 199 279 314 324 344 349 0
141 276 311 321 341 356 0
144 279 314 324 344 364 0
144 279 314 324 349 359 0
142 277 312 322 347 362 0
142 207 277 312 322 352 362 0
144 224 279 314 324 359 364 0
141 226 276 311 321 356 366 0
152 167 182 277 312 327 332 347 0
152 277 312 327 332 352 0
160 170 195 280 315 330 340 350 0
160 280 315 330 340 370 0
170 280 315 330 350 360 0
167 277 312 327 347 362 0
207 277 312 327 352 362 0
230 280 315 330 360 370 0
176 181 196 276 311 331 341 346 0
176 276 311 331 341 371 0
182 277 312 332 347 357 0
181 276 311 331 346 366 0
202 277 312 332 352 357 0
246 276 311 331 366 371 0
189 194 199 279 314 339 344 349 0
189 279 314 339 344 364 0
194 279 314 339 349 359 0
195 280 315 340 350 375 0
224 279 314 339 359 364 0
250 280 315 340 370 375 0
199 279 314 344 349 354 0
196 276 311 341 346 356 0
209 279 314 344 354 364 0
231 276 311 341 356 371 0
204 279 314 349 354 359 0
222 277 312 347 357 362 0
226 276 311 346 356 366 0
235 280 315 350 360 375 0
202 207 222 277 312 352 357 362 0
204 209 224 279 314 354 359 364 0
226 231 246 276 311 356 366 371 0
230 235 250 280 315 360 370 375 0
146 171 276 316 321 331 336 0
147 177 277 317 322 332 342 0
146 276 316 321 331 361 0
147 277 317 322 332 372 0
148 188 278 318 323 338 343 0
148 278 318 323 338 353 0
146 276 316 321 336 356 0
147 277 317 322 342 362 0
148 278 318 323 343 373 0
148 218 278 318 323 353 373 0
146 221 276 316 321 356 361 0
147 242 277 317 322 362 372 0
152 162 177 277 317 327 332 342 0
155 170 185 280 320 330 335 350 0
155 280 320 330 335 370 0
152 277 317 327 332 372 0
162 277 317 327 342 362 0
170 280 320 330 350 355 0
215 280 320 330 355 370 0
242 277 317 327 362 372 0
173 178 188 278 318 333 338 343 0
171 181 191 276 316 331 336 346 0
173 278 318 333 338 353 0
171 276 316 331 336 371 0
177 277 317 332 342 357 0
178 278 318 333 343 373 0
181 276 316 331 346 361 0
185 280 320 335 350 375 0
218 278 318 333 353 373 0
232 277 317 332 357 372 0
241 276 316 331 361 371 0
250 280 320 335 370 375 0
188 278 318 338 343 368 0
191 276 316 336 346 356 0
213 278 318 338 353 368 0
231 276 316 336 356 371 0
222 277 317 342 357 362 0
248 278 318 343 368 373 0
220 280 320 350 355 375 0
221 276 316 346 356 361 0
213 218 248 278 318 353 368 373 0
215 220 250 280 320 355 370 375 0
221 231 241 276 316 356 361 371 0
222 232 242 277 317 357 362 372 0
158 163 188 278 323 328 338 343 0
158 278 323 328 338 353 0
164 169 199 279 324 329 344 349 0
164 279 324 329 344 364 0
163 278 323 328 343 373 0
169 279 324 329 349 359 0
218 278 323 328 353 373 0
224 279 324 329 359 364 0
171 176 186 276 321 331 336 341 0
171 276 321 331 336 366 0
177 182 197 277 322 332 342 347 0
177 277 322 332 342 352 0
176 276 321 331 341 361 0
182 277 322 332 347 372 0
217 277 322 332 352 372 0
236 276 321 331 361 366 0
186 276 321 336 341 356 0
188 278 323 338 343 363 0
208 278 323 338 353 363 0
226 276 321 336 356 366 0
197 277 322 342 347 362 0
199 279 324 344 349 369 0
207 277 322 342 352 362 0
221 276 321 341 356 361 0
239 279 324 344 364 369 0
243 278 323 343 363 373 0
229 279 324 349 359 369 0
242 277 322 347 362 372 0
207 217 242 277 322 352 362 372 0
208 218 243 278 323 353 363 373 0
221 226 236 276 321 356 361 366 0
224 229 239 279 324 359 364 369 0
153 158 163 173 178 188 278 328 333 338 343 0
155 160 170 175 185 195 280 330 335 340 350 0
153 158 173 278 328 333 338 353 0
155 160 175 280 330 335 340 370 0
152 162 167 177 182 197 277 327 332 342 347 0
152 162 177 277 327 332 342 352 0
153 163 178 278 328 333 343 373 0
155 170 185 280 330 335 350 360 0
152 167 182 277 327 332 347 372 0
152 217 277 327 332 352 372 0
153 218 278 328 333 353 373 0
155 230 280 330 335 360 370 0
159 164 169 189 194 199 279 329 339 344 349 0
159 164 189 279 329 339 344 364 0
158 163 188 278 328 338 343 368 0
160 170 195 280 330 340 350 355 0
159 169 194 279 329 339 349 359 0
158 213 278 328 338 353 368 0
160 215 280 330 340 355 370 0
159 224 279 329 339 359 364 0
164 169 199 279 329 344 349 354 0
162 167 197 277 327 342 347 362 0
162 207 277 327 342 352 362 0
164 209 279 329 344 354 364 0
163 248 278 328 343 368 373 0
169 204 279 329 349 354 359 0
170 205 280 330 350 355 360 0
167 242 277 327 347 362 372 0
204 209 224 279 329 354 359 364 0
205 215 230 280 330 355 360 370 0
207 217 242 277 327 352 362 372 0
213 218 248 278 328 353 368 373 0
171 176 181 186 191 196 276 331 336 341 346 0
173 178 188 278 333 338 343 363 0
171 176 186 276 331 336 341 371 0
171 181 191 276 331 336 346 366 0
175 185 195 280 335 340 350 375 0
173 208 278 333 338 353 363 0
171 246 276 331 336 366 371 0
175 250 280 335 340 370 375 0
177 182 197 277 332 342 347 357 0
176 181 196 276 331 341 346 361 0
177 202 277 332 342 352 357 0
176 241 276 331 341 361 371 0
178 243 278 333 343 363 373 0
182 232 277 332 347 357 372 0
185 235 280 335 350 360 375 0
181 236 276 331 346 361 366 0
202 217 232 277 332 352 357 372 0
208 218 243 278 333 353 363 373 0
230 235 250 280 335 360 370 375 0
236 241 246 276 331 361 366 371 0
186 191 196 276 336 341 346 356 0
189 194 199 279 339 344 349 369 0
186 231 276 336 341 356 371 0
188 238 278 338 343 363 368 0
189 239 279 339 344 364 369 0
195 220 280 340 350 355 375 0
191 226 276 336 346 356 366 0
194 229 279 339 349 359 369 0
208 213 238 278 338 353 363 368 0
215 220 250 280 340 355 370 375 0
224 229 239 279 339 359 364 369 0
226 231 246 276 336 356 366 371 0
199 214 279 344 349 354 369 0
196 221 276 341 346 356 361 0
197 222 277 342 347 357 362 0
202 207 222 277 342 352 357 362 0
209 214 239 279 344 354 364 369 0
221 231 241 276 341 356 361 371 0
238 243 248 278 343 363 368 373 0
204 214 229 279 349 354 359 369 0
205 220 235 280 350 355 360 375 0
221 226 236 276 346 356 361 366 0
222 232 242 277 347 357 362 372 0
204 209 214 224 229 239 279 354 359 364 369 0
202 207 217 222 232 242 277 352 357 362 372 0
205 215 220 230 235 250 280 355 360 370 375 0
208 213 218 238 243 248 278 353 363 368 373 0
221 226 231 236 241 246 276 356 361 366 371 0
71 76 81 86 91 96 281 286 291 296 301 0
72 77 82 87 92 97 282 287 292 297 307 0
73 78 83 88 93 98 283 288 293 298 313 0
74 79 84 89 94 99 284 289 294 299 319 0
75 80 85 90 95 100 285 290 295 300 325 0
71 76 81 86 91 96 281 286 291 296 326 0
74 79 84 89 94 99 284 289 294 299 334 0
72 77 82 87 92 97 282 287 292 297 337 0
75 80 85 90 95 100 285 290 295 300 345 0
73 78 83 88 93 98 283 288 293 298 348 0
71 76 81 86 91 96 281 286 291 296 351 0
73 78 83 88 93 98 283 288 293 298 358 0
75 80 85 90 95 100 285 290 295 300 365 0
72 77 82 87 92 97 282 287 292 297 367 0
74 79 84 89 94 99 284 289 294 299 374 0
72 77 87 102 282 287 292 302 307 0
71 76 86 116 281 286 291 301 321 0
72 77 87 282 287 292 302 337 0
71 76 86 281 286 291 301 346 0
72 77 87 282 287 292 302 367 0
71 76 86 281 286 291 301 371 0
73 78 88 123 283 288 293 308 313 0
72 77 87 282 287 292 307 332 0
73 78 88 283 288 293 308 348 0
73 78 88 283 288 293 308 358 0
72 77 87 282 287 292 307 362 0
74 79 89 139 284 289 294 314 319 0
74 79 89 284 289 294 314 334 0
73 78 88 283 288 293 313 343 0
73 78 88 283 288 293 313 353 0
74 79 89 284 289 294 314 374 0
75 80 90 150 285 290 295 320 325 0
74 79 89 284 289 294 319 329 0
75 80 90 285 290 295 320 345 0
75 80 90 285 290 295 320 365 0
74 79 89 284 289 294 319 369 0
71 76 86 281 286 291 321 326 0
75 80 90 285 290 295 325 340 0
71 76 86 281 286 291 321 351 0
75 80 90 285 290 295 325 360 0
74 79 89 154 284 289 294 329 334 0
71 76 86 166 281 286 291 326 346 0
71 76 86 281 286 291 326 371 0
74 79 89 284 289 294 329 374 0
72 77 87 172 282 287 292 332 337 0
72 77 87 282 287 292 332 367 0
74 79 89 284 289 294 334 369 0
75 80 90 190 285 290 295 340 345 0
72 77 87 282 287 292 337 362 0
75 80 90 285 290 295 340 365 0
73 78 88 198 283 288 293 343 348 0
73 78 88 283 288 293 343 358 0
75 80 90 285 290 295 345 360 0
71 76 86 281 286 291 346 351 0
73 78 88 283 288 293 348 353 0
73 78 88 203 283 288 293 353 358 0
71 76 86 216 281 286 291 351 371 0
75 80 90 225 285 290 295 360 365 0
72 77 87 237 282 287 292 362 367 0
74 79 89 249 284 289 294 369 374 0
73 83 93 108 283 288 298 303 313 0
71 81 91 111 281 286 296 301 316 0
71 81 91 281 286 296 301 341 0
73 83 93 283 288 298 303 348 0
73 83 93 283 288 298 303 358 0
71 81 91 281 286 296 301 366 0
74 84 94 129 284 289 299 309 319 0
72 82 92 132 282 287 297 307 322 0
72 82 92 282 287 297 307 327 0
74 84 94 284 289 299 309 334 0
72 82 92 282 287 297 307 357 0
74 84 94 284 289 299 309 374 0
75 85 95 145 285 290 300 315 325 0
73 83 93 283 288 298 313 338 0
75 85 95 285 290 300 315 345 0
75 85 95 285 290 300 315 365 0
73 83 93 283 288 298 313 373 0
71 81 91 281 286 296 316 326 0
74 84 94 284 289 299 319 349 0
71 81 91 281 286 296 316 351 0
74 84 94 284 289 299 319 364 0
75 85 95 285 290 300 325 335 0
72 82 92 282 287 297 322 337 0
75 85 95 285 290 300 325 355 0
72 82 92 282 287 297 322 367 0
72 82 92 157 282 287 297 327 337 0
71 81 91 161 281 286 296 326 341 0
71 81 91 281 286 296 326 366 0
72 82 92 282 287 297 327 367 0
75 85 95 180 285 290 300 335 345 0
74 84 94 184 284 289 299 334 349 0
74 84 94 284 289 299 334 364 0
75 85 95 285 290 300 335 365 0
73 83 93 193 283 288 298 338 348 0
72 82 92 282 287 297 337 357 0
73 83 93 283 288 298 338 358 0
71 81 91 281 286 296 341 351 0
75 85 95 285 290 300 345 355 0
73 83 93 283 288 298 348 373 0
74 84 94 284 289 299 349 374 0
75 85 95 210 285 290 300 355 365 0
71 81 91 211 281 286 296 351 366 0
72 82 92 227 282 287 297 357 367 0
73 83 93 233 283 288 298 358 373 0
74 84 94 244 284 289 299 364 374 0
73 103 108 123 283 288 303 308 313 0
72 102 117 132 282 287 302 307 322 0
72 102 282 287 302 307 327 0
73 103 283 288 303 308 348 0
72 102 282 287 302 307 357 0
73 103 283 288 303 308 358 0
73 108 283 288 303 313 343 0
73 108 283 288 303 313 353 0
71 111 116 146 281 286 301 316 321 0
71 111 281 286 301 316 346 0
71 111 281 286 301 316 371 0
72 117 282 287 302 322 337 0
71 116 281 286 301 321 341 0
71 116 281 286 301 321 366 0
72 117 282 287 302 322 367 0
72 157 282 287 302 327 337 0
72 282 287 302 327 367 0
72 282 287 302 337 357 0
71 196 281 286 301 341 346 0
73 198 283 288 303 343 348 0
73 283 288 303 343 358 0
71 281 286 301 341 371 0
73 283 288 303 348 353 0
71 281 286 301 346 366 0
73 203 283 288 303 353 358 0
72 227 282 287 302 357 367 0
71 246 281 286 301 366 371 0
74 124 129 139 284 289 309 314 319 0
74 124 284 289 309 314 334 0
73 123 283 288 308 313 338 0
73 123 283 288 308 313 373 0
74 124 284 289 309 314 374 0
74 129 284 289 309 319 329 0
74 129 284 289 309 319 369 0
72 132 282 287 307 322 332 0
72 132 282 287 307 322 362 0
72 152 282 287 307 327 332 0
74 154 284 289 309 329 334 0
72 282 287 307 327 362 0
74 284 289 309 329 374 0
72 282 287 307 332 357 0
74 284 289 309 334 369 0
73 193 283 288 308 338 348 0
73 283 288 308 338 358 0
73 283 288 308 348 373 0
72 222 282 287 307 357 362 0
73 233 283 288 308 358 373 0
74 249 284 289 309 369 374 0
75 140 145 150 285 290 315 320 325 0
75 140 285 290 315 320 345 0
74 139 284 289 314 319 349 0
74 139 284 289 314 319 364 0
75 140 285 290 315 320 365 0
75 145 285 290 315 325 340 0
75 145 285 290 315 325 360 0
74 184 284 289 314 334 349 0
74 284 289 314 334 364 0
73 188 283 288 313 338 343 0
75 190 285 290 315 340 345 0
73 283 288 313 338 353 0
75 285 290 315 340 365 0
75 285 290 315 345 360 0
73 283 288 313 343 373 0
74 284 289 314 349 374 0
73 218 283 288 313 353 373 0
75 225 285 290 315 360 365 0
74 244 284 289 314 364 374 0
71 146 281 286 316 321 326 0
75 150 285 290 320 325 335 0
71 146 281 286 316 321 351 0
75 150 285 290 320 325 355 0
71 166 281 286 316 326 346 0
74 169 284 289 319 329 349 0
74 284 289 319 329 364 0
71 281 286 316 326 371 0
75 180 285 290 320 335 345 0
75 285 290 320 335 365 0
75 285 290 320 345 355 0
71 281 286 316 346 351 0
74 284 289 319 349 369 0
75 210 285 290 320 355 365 0
71 216 281 286 316 351 371 0
74 239 284 289 319 364 369 0
71 161 281 286 321 326 341 0
71 281 286 321 326 366 0
72 172 282 287 322 332 337 0
75 175 285 290 325 335 340 0
75 285 290 325 335 360 0
72 282 287 322 332 367 0
75 285 290 325 340 355 0
72 282 287 322 337 362 0
71 281 286 321 341 351 0
75 205 285 290 325 355 360 0
71 211 281 286 321 351 366 0
72 237 282 287 322 362 367 0
72 152 157 172 282 287 327 332 337 0
74 154 169 184 284 289 329 334 349 0
74 154 284 289 329 334 364 0
72 152 282 287 327 332 367 0
72 157 282 287 327 337 362 0
71 161 166 196 281 286 326 341 346 0
71 161 281 286 326 341 371 0
71 166 281 286 326 346 366 0
74 169 284 289 329 349 374 0
72 237 282 287 327 362 367 0
74 244 284 289 329 364 374 0
71 246 281 286 326 366 371 0
75 175 180 190 285 290 335 340 345 0
72 172 282 287 332 337 357 0
75 175 285 290 335 340 365 0
75 180 285 290 335 345 360 0
74 184 284 289 334 349 369 0
75 225 285 290 335 360 365 0
72 227 282 287 332 357 367 0
74 239 284 289 334 364 369 0
73 188 193 198 283 288 338 343 348 0
75 190 285 290 340 345 355 0
73 188 283 288 338 343 358 0
73 193 283 288 338 348 353 0
73 203 283 288 338 353 358 0
75 210 285 290 340 355 365 0
72 222 282 287 337 357 362 0
71 196 281 286 341 346 351 0
73 198 283 288 343 348 373 0
75 205 285 290 345 355 360 0
71 216 281 286 341 351 371 0
73 233 283 288 343 358 373 0
71 211 281 286 346 351 366 0
73 218 283 288 348 353 373 0
74 249 284 289 349 369 374 0
75 205 210 225 285 290 355 360 365 0
73 203 218 233 283 288 353 358 373 0
71 211 216 246 281 286 351 366 371 0
72 222 227 237 282 287 357 362 367 0
74 239 244 249 284 289 364 369 374 0
76 81 96 106 281 291 296 301 311 0
79 84 99 114 284 294 299 304 319 0
79 84 99 284 294 299 304 334 0
76 81 96 281 291 296 301 336 0
76 81 96 281 291 296 301 361 0
79 84 99 284 294 299 304 374 0
77 82 97 127 282 292 297 307 317 0
80 85 100 135 285 295 300 310 325 0
80 85 100 285 295 300 310 345 0
77 82 97 282 292 297 307 347 0
77 82 97 282 292 297 307 352 0
80 85 100 285 295 300 310 365 0
78 83 98 143 283 293 298 313 323 0
76 81 96 281 291 296 311 326 0
78 83 98 283 293 298 313 333 0
76 81 96 281 291 296 311 351 0
78 83 98 283 293 298 313 368 0
77 82 97 282 292 297 317 337 0
79 84 99 284 294 299 319 344 0
79 84 99 284 294 299 319 359 0
77 82 97 282 292 297 317 367 0
80 85 100 285 295 300 325 330 0
78 83 98 283 293 298 323 348 0
78 83 98 283 293 298 323 358 0
80 85 100 285 295 300 325 375 0
76 81 96 156 281 291 296 326 336 0
80 85 100 165 285 295 300 330 345 0
76 81 96 281 291 296 326 361 0
80 85 100 285 295 300 330 365 0
79 84 99 179 284 294 299 334 344 0
78 83 98 183 283 293 298 333 348 0
78 83 98 283 293 298 333 358 0
79 84 99 284 294 299 334 359 0
77 82 97 192 282 292 297 337 347 0
76 81 96 281 291 296 336 351 0
77 82 97 282 292 297 337 352 0
79 84 99 284 294 299 344 374 0
80 85 100 285 295 300 345 375 0
77 82 97 282 292 297 347 367 0
78 83 98 283 293 298 348 368 0
76 81 96 206 281 291 296 351 361 0
77 82 97 212 282 292 297 352 367 0
78 83 98 228 283 293 298 358 368 0
79 84 99 234 284 294 299 359 374 0
80 85 100 245 285 295 300 365 375 0
77 102 112 127 282 292 302 307 317 0
77 102 282 292 302 307 347 0
77 102 282 292 302 307 352 0
79 109 114 139 284 294 304 314 319 0
76 106 116 141 281 291 301 311 321 0
79 109 284 294 304 314 334 0
76 106 281 291 301 311 346 0
76 106 281 291 301 311 371 0
79 109 284 294 304 314 374 0
79 114 284 294 304 319 329 0
77 112 282 292 302 317 337 0
77 112 282 292 302 317 367 0
79 114 284 294 304 319 369 0
76 116 281 291 301 321 336 0
76 116 281 291 301 321 361 0
79 154 284 294 304 329 334 0
79 284 294 304 329 374 0
79 284 294 304 334 369 0
76 191 281 291 301 336 346 0
77 192 282 292 302 337 347 0
77 282 292 302 337 352 0
76 281 291 301 336 371 0
76 281 291 301 346 361 0
77 282 292 302 347 367 0
77 212 282 292 302 352 367 0
76 241 281 291 301 361 371 0
79 249 284 294 304 369 374 0
78 123 133 143 283 293 308 313 323 0
78 123 283 293 308 313 333 0
78 123 283 293 308 313 368 0
80 130 135 150 285 295 310 320 325 0
77 127 282 292 307 317 332 0
80 130 285 295 310 320 345 0
77 127 282 292 307 317 362 0
80 130 285 295 310 320 365 0
80 135 285 295 310 325 340 0
78 133 283 293 308 323 348 0
78 133 283 293 308 323 358 0
80 135 285 295 310 325 360 0
77 182 282 292 307 332 347 0
78 183 283 293 308 333 348 0
77 282 292 307 332 352 0
78 283 293 308 333 358 0
80 190 285 295 310 340 345 0
80 285 295 310 340 365 0
80 285 295 310 345 360 0
77 282 292 307 347 362 0
78 283 293 308 348 368 0
77 207 282 292 307 352 362 0
80 225 285 295 310 360 365 0
78 228 283 293 308 358 368 0
79 139 284 294 314 319 344 0
79 139 284 294 314 319 359 0
76 141 281 291 311 321 326 0
78 143 283 293 313 323 343 0
76 141 281 291 311 321 351 0
78 143 283 293 313 323 353 0
76 166 281 291 311 326 346 0
76 281 291 311 326 371 0
78 178 283 293 313 333 343 0
79 179 284 294 314 334 344 0
78 283 293 313 333 353 0
79 284 294 314 334 359 0
78 283 293 313 343 368 0
79 284 294 314 344 374 0
76 281 291 311 346 351 0
78 213 283 293 313 353 368 0
76 216 281 291 311 351 371 0
79 234 284 294 314 359 374 0
80 150 285 295 320 325 330 0
80 150 285 295 320 325 375 0
79 164 284 294 319 329 344 0
80 165 285 295 320 330 345 0
79 284 294 319 329 359 0
80 285 295 320 330 365 0
77 172 282 292 317 332 337 0
77 282 292 317 332 367 0
77 282 292 317 337 362 0
79 284 294 319 344 369 0
80 285 295 320 345 375 0
79 229 284 294 319 359 369 0
77 237 282 292 317 362 367 0
80 245 285 295 320 365 375 0
76 156 281 291 321 326 336 0
80 160 285 295 325 330 340 0
80 285 295 325 330 360 0
76 281 291 321 326 361 0
76 281 291 321 336 351 0
80 285 295 325 340 375 0
78 198 283 293 323 343 348 0
78 283 293 323 343 358 0
78 283 293 323 348 353 0
78 203 283 293 323 353 358 0
76 206 281 291 321 351 361 0
80 235 285 295 325 360 375 0
79 154 164 179 284 294 329 334 344 0
79 154 284 294 329 334 359 0
80 160 165 190 285 295 330 340 345 0
76 156 166 191 281 291 326 336 346 0
80 160 285 295 330 340 365 0
76 156 281 291 326 336 371 0
80 165 285 295 330 345 360 0
79 164 284 294 329 344 374 0
76 166 281 291 326 346 361 0
80 225 285 295 330 360 365 0
79 234 284 294 329 359 374 0
76 241 281 291 326 361 371 0
77 172 182 192 282 292 332 337 347 0
77 172 282 292 332 337 352 0
78 178 183 198 283 293 333 343 348 0
78 178 283 293 333 343 358 0
79 179 284 294 334 344 369 0
78 183 283 293 333 348 353 0
77 182 282 292 332 347 367 0
78 203 283 293 333 353 358 0
77 212 282 292 332 352 367 0
79 229 284 294 334 359 369 0
80 190 285 295 340 345 375 0
76 191 281 291 336 346 351 0
77 192 282 292 337 347 362 0
77 207 282 292 337 352 362 0
76 216 281 291 336 351 371 0
80 245 285 295 340 365 375 0
78 198 283 293 343 348 368 0
78 228 283 293 343 358 368 0
80 235 285 295 345 360 375 0
79 249 284 294 344 369 374 0
76 206 281 291 346 351 361 0
78 213 283 293 348 353 368 0
77 237 282 292 347 362 367 0
78 203 213 228 283 293 353 358 368 0
77 207 212 237 282 292 352 362 367 0
76 206 216 241 281 291 351 361 371 0
80 225 235 245 285 295 360 365 375 0
79 229 234 249 284 294 359 369 374 0
84 104 114 129 284 299 304 309 319 0
84 104 284 299 304 309 334 0
84 104 284 299 304 309 374 0
81 106 111 136 281 296 301 311 316 0
83 108 118 143 283 298 303 313 323 0
83 108 283 298 303 313 333 0
81 106 281 296 301 311 341 0
81 106 281 296 301 311 366 0
83 108 283 298 303 313 368 0
81 111 281 296 301 316 336 0
84 114 284 299 304 319 349 0
81 111 281 296 301 316 361 0
84 114 284 299 304 319 364 0
83 118 283 298 303 323 348 0
83 118 283 298 303 323 358 0
83 183 283 298 303 333 348 0
84 184 284 299 304 334 349 0
83 283 298 303 333 358 0
84 284 299 304 334 364 0
81 186 281 296 301 336 341 0
81 281 296 301 336 366 0
81 281 296 301 341 361 0
83 283 298 303 348 368 0
84 284 299 304 349 374 0
83 228 283 298 303 358 368 0
81 236 281 296 301 361 366 0
84 244 284 299 304 364 374 0
85 125 135 145 285 300 310 315 325 0
85 125 285 300 310 315 345 0
85 125 285 300 310 315 365 0
82 127 132 147 282 297 307 317 322 0
82 127 282 297 307 317 327 0
84 129 284 299 309 319 344 0
82 127 282 297 307 317 357 0
84 129 284 299 309 319 359 0
85 135 285 300 310 325 335 0
82 132 282 297 307 322 347 0
82 132 282 297 307 322 352 0
85 135 285 300 310 325 355 0
82 167 282 297 307 327 347 0
82 282 297 307 327 352 0
84 179 284 299 309 334 344 0
85 180 285 300 310 335 345 0
84 284 299 309 334 359 0
85 285 300 310 335 365 0
85 285 300 310 345 355 0
84 284 299 309 344 374 0
82 282 297 307 347 357 0
82 202 282 297 307 352 357 0
85 210 285 300 310 355 365 0
84 234 284 299 309 359 374 0
81 136 281 296 311 316 326 0
81 136 281 296 311 316 351 0
85 145 285 300 315 325 330 0
83 143 283 298 313 323 338 0
83 143 283 298 313 323 373 0
85 145 285 300 315 325 375 0
81 161 281 296 311 326 341 0
85 165 285 300 315 330 345 0
85 285 300 315 330 365 0
81 281 296 311 326 366 0
83 173 283 298 313 333 338 0
83 283 298 313 333 373 0
83 283 298 313 338 368 0
81 281 296 311 341 351 0
85 285 300 315 345 375 0
81 211 281 296 311 351 366 0
85 245 285 300 315 365 375 0
83 248 283 298 313 368 373 0
82 147 282 297 317 322 337 0
82 147 282 297 317 322 367 0
81 156 281 296 316 326 336 0
82 157 282 297 317 327 337 0
81 281 296 316 326 361 0
82 282 297 317 327 367 0
81 281 296 316 336 351 0
82 282 297 317 337 357 0
84 199 284 299 319 344 349 0
84 284 299 319 344 364 0
84 284 299 319 349 359 0
81 206 281 296 316 351 361 0
84 224 284 299 319 359 364 0
82 227 282 297 317 357 367 0
85 155 285 300 325 330 335 0
85 285 300 325 330 355 0
85 285 300 325 335 375 0
82 192 282 297 322 337 347 0
83 193 283 298 323 338 348 0
82 282 297 322 337 352 0
83 283 298 323 338 358 0
82 282 297 322 347 367 0
83 283 298 323 348 373 0
82 212 282 297 322 352 367 0
85 220 285 300 325 355 375 0
83 233 283 298 323 358 373 0
85 155 165 180 285 300 330 335 345 0
85 155 285 300 330 335 365 0
81 156 161 186 281 296 326 336 341 0
82 157 167 192 282 297 327 337 347 0
82 157 282 297 327 337 352 0
81 156 281 296 326 336 366 0
85 165 285 300 330 345 355 0
81 161 281 296 326 341 361 0
82 167 282 297 327 347 367 0
85 210 285 300 330 355 365 0
82 212 282 297 327 352 367 0
81 236 281 296 326 361 366 0
83 173 183 193 283 298 333 338 348 0
83 173 283 298 333 338 358 0
84 179 184 199 284 299 334 344 349 0
84 179 284 299 334 344 364 0
85 180 285 300 335 345 375 0
84 184 284 299 334 349 359 0
83 183 283 298 333 348 373 0
84 224 284 299 334 359 364 0
83 233 283 298 333 358 373 0
85 245 285 300 335 365 375 0
81 186 281 296 336 341 351 0
82 192 282 297 337 347 357 0
83 193 283 298 338 348 368 0
82 202 282 297 337 352 357 0
81 211 281 296 336 351 366 0
83 228 283 298 338 358 368 0
84 199 284 299 344 349 374 0
81 206 281 296 341 351 361 0
85 220 285 300 345 355 375 0
84 244 284 299 344 364 374 0
82 227 282 297 347 357 367 0
84 234 284 299 349 359 374 0
83 248 283 298 348 368 373 0
82 202 212 227 282 297 352 357 367 0
81 206 211 236 281 296 351 361 366 0
85 210 220 245 285 300 355 365 375 0
84 224 234 244 284 299 359 364 374 0
83 228 233 248 283 298 358 368 373 0
104 109 114 124 129 139 284 304 309 314 319 0
103 108 118 123 133 143 283 303 308 313 323 0
103 108 123 283 303 308 313 333 0
104 109 124 284 304 309 314 334 0
103 108 123 283 303 308 313 368 0
104 109 124 284 304 309 314 374 0
102 112 117 127 132 147 282 302 307 317 322 0
102 112 127 282 302 307 317 327 0
104 114 129 284 304 309 319 329 0
102 112 127 282 302 307 317 357 0
104 114 129 284 304 309 319 369 0
102 117 132 282 302 307 322 347 0
103 118 133 283 303 308 323 348 0
102 117 132 282 302 307 322 352 0
103 118 133 283 303 308 323 358 0
104 154 284 304 309 329 334 0
102 167 282 302 307 327 347 0
102 282 302 307 327 352 0
104 284 304 309 329 374 0
103 183 283 303 308 333 348 0
103 283 303 308 333 358 0
104 284 304 309 334 369 0
102 282 302 307 347 357 0
103 283 303 308 348 368 0
102 202 282 302 307 352 357 0
103 228 283 303 308 358 368 0
104 249 284 304 309 369 374 0
106 111 116 136 141 146 281 301 311 316 321 0
106 111 136 281 301 311 316 346 0
109 114 139 284 304 314 319 349 0
109 114 139 284 304 314 319 364 0
106 111 136 281 301 311 316 371 0
106 116 141 281 301 311 321 341 0
108 118 143 283 303 313 323 343 0
108 118 143 283 303 313 323 353 0
106 116 141 281 301 311 321 366 0
108 178 283 303 313 333 343 0
109 184 284 304 314 334 349 0
108 283 303 313 333 353 0
109 284 304 314 334 364 0
106 196 281 301 311 341 346 0
108 283 303 313 343 368 0
106 281 301 311 341 371 0
106 281 301 311 346 366 0
109 284 304 314 349 374 0
108 213 283 303 313 353 368 0
109 244 284 304 314 364 374 0
106 246 281 301 311 366 371 0
111 116 146 281 301 316 321 336 0
112 117 147 282 302 317 322 337 0
111 116 146 281 301 316 321 361 0
112 117 147 282 302 317 322 367 0
112 157 282 302 317 327 337 0
114 169 284 304 319 329 349 0
114 284 304 319 329 364 0
112 282 302 317 327 367 0
111 191 281 301 316 336 346 0
112 282 302 317 337 357 0
111 281 301 316 336 371 0
111 281 301 316 346 361 0
114 284 304 319 349 369 0
112 227 282 302 317 357 367 0
114 239 284 304 319 364 369 0
111 241 281 301 316 361 371 0
116 186 281 301 321 336 341 0
117 192 282 302 322 337 347 0
117 282 302 322 337 352 0
116 281 301 321 336 366 0
118 198 283 303 323 343 348 0
118 283 303 323 343 358 0
116 281 301 321 341 361 0
118 283 303 323 348 353 0
117 282 302 322 347 367 0
118 203 283 303 323 353 358 0
117 212 282 302 322 352 367 0
116 236 281 301 321 361 366 0
154 169 184 284 304 329 334 349 0
154 284 304 329 334 364 0
157 167 192 282 302 327 337 347 0
157 282 302 327 337 352 0
167 282 302 327 347 367 0
169 284 304 329 349 374 0
212 282 302 327 352 367 0
244 284 304 329 364 374 0
178 183 198 283 303 333 343 348 0
178 283 303 333 343 358 0
183 283 303 333 348 353 0
184 284 304 334 349 369 0
203 283 303 333 353 358 0
239 284 304 334 364 369 0
186 191 196 281 301 336 341 346 0
186 281 301 336 341 371 0
192 282 302 337 347 357 0
191 281 301 336 346 366 0
202 282 302 337 352 357 0
246 281 301 336 366 371 0
196 281 301 341 346 361 0
198 283 303 343 348 368 0
228 283 303 343 358 368 0
241 281 301 341 361 371 0
213 283 303 348 353 368 0
227 282 302 347 357 367 0
236 281 301 346 361 366 0
249 284 304 349 369 374 0
202 212 227 282 302 352 357 367 0
203 213 228 283 303 353 358 368 0
236 241 246 281 301 361 366 371 0
239 244 249 284 304 364 369 374 0
125 130 135 140 145 150 285 310 315 320 325 0
124 129 139 284 309 314 319 344 0
125 130 140 285 310 315 320 345 0
124 129 139 284 309 314 319 359 0
125 130 140 285 310 315 320 365 0
123 133 143 283 308 313 323 338 0
125 135 145 285 310 315 325 340 0
125 135 145 285 310 315 325 360 0
123 133 143 283 308 313 323 373 0
123 173 283 308 313 333 338 0
124 179 284 309 314 334 344 0
124 284 309 314 334 359 0
123 283 308 313 333 373 0
125 190 285 310 315 340 345 0
125 285 310 315 340 365 0
123 283 308 313 338 368 0
125 285 310 315 345 360 0
124 284 309 314 344 374 0
125 225 285 310 315 360 365 0
124 234 284 309 314 359 374 0
123 248 283 308 313 368 373 0
127 132 147 282 307 317 322 332 0
130 135 150 285 310 320 325 335 0
130 135 150 285 310 320 325 355 0
127 132 147 282 307 317 322 362 0
127 152 282 307 317 327 332 0
129 164 284 309 319 329 344 0
129 284 309 319 329 359 0
127 282 307 317 327 362 0
130 180 285 310 320 335 345 0
127 282 307 317 332 357 0
130 285 310 320 335 365 0
130 285 310 320 345 355 0
129 284 309 319 344 369 0
130 210 285 310 320 355 365 0
127 222 282 307 317 357 362 0
129 229 284 309 319 359 369 0
135 175 285 310 325 335 340 0
132 182 282 307 322 332 347 0
132 282 307 322 332 352 0
135 285 310 325 335 360 0
133 193 283 308 323 338 348 0
135 285 310 325 340 355 0
133 283 308 323 338 358 0
132 282 307 322 347 362 0
133 283 308 323 348 373 0
135 205 285 310 325 355 360 0
132 207 282 307 322 352 362 0
133 233 283 308 323 358 373 0
154 164 179 284 309 329 334 344 0
152 167 182 282 307 327 332 347 0
152 282 307 327 332 352 0
154 284 309 329 334 359 0
164 284 309 329 344 374 0
167 282 307 327 347 362 0
207 282 307 327 352 362 0
234 284 309 329 359 374 0
175 180 190 285 310 335 340 345 0
173 183 193 283 308 333 338 348 0
173 283 308 333 338 358 0
175 285 310 335 340 365 0
180 285 310 335 345 360 0
179 284 309 334 344 369 0
182 282 307 332 347 357 0
183 283 308 333 348 373 0
202 282 307 332 352 357 0
225 285 310 335 360 365 0
229 284 309 334 359 369 0
233 283 308 333 358 373 0
190 285 310 340 345 355 0
193 283 308 338 348 368 0
210 285 310 340 355 365 0
228 283 308 338 358 368 0
205 285 310 345 355 360 0
249 284 309 344 369 374 0
222 282 307 347 357 362 0
248 283 308 348 368 373 0
202 207 222 282 307 352 357 362 0
205 210 225 285 310 355 360 365 0
228 233 248 283 308 358 368 373 0
229 234 249 284 309 359 369 374 0
136 141 146 281 311 316 321 326 0
140 145 150 285 315 320 325 330 0
136 141 146 281 311 316 321 351 0
140 145 150 285 315 320 325 375 0
140 165 285 315 320 330 345 0
136 166 281 311 316 326 346 0
140 285 315 320 330 365 0
136 281 311 316 326 371 0
139 199 284 314 319 344 349 0
139 284 314 319 344 364 0
140 285 315 320 345 375 0
136 281 311 316 346 351 0
139 284 314 319 349 359 0
136 216 281 311 316 351 371 0
139 224 284 314 319 359 364 0
140 245 285 315 320 365 375 0
145 160 285 315 325 330 340 0
141 161 281 311 321 326 341 0
145 285 315 325 330 360 0
141 281 311 321 326 366 0
143 188 283 313 323 338 343 0
143 283 313 323 338 353 0
145 285 315 325 340 375 0
141 281 311 321 341 351 0
143 283 313 323 343 373 0
141 211 281 311 321 351 366 0
143 218 283 313 323 353 373 0
145 235 285 315 325 360 375 0
160 165 190 285 315 330 340 345 0
160 285 315 330 340 365 0
161 166 196 281 311 326 341 346 0
165 285 315 330 345 360 0
161 281 311 326 341 371 0
166 281 311 326 346 366 0
225 285 315 330 360 365 0
246 281 311 326 366 371 0
173 178 188 283 313 333 338 343 0
173 283 313 333 338 353 0
179 184 199 284 314 334 344 349 0
179 284 314 334 344 364 0
178 283 313 333 343 373 0
184 284 314 334 349 359 0
218 283 313 333 353 373 0
224 284 314 334 359 364 0
188 283 313 338 343 368 0
190 285 315 340 345 375 0
213 283 313 338 353 368 0
245 285 315 340 365 375 0
196 281 311 341 346 351 0
199 284 314 344 349 374 0
216 281 311 341 351 371 0
235 285 315 345 360 375 0
244 284 314 344 364 374 0
248 283 313 343 368 373 0
211 281 311 346 351 366 0
234 284 314 349 359 374 0
211 216 246 281 311 351 366 371 0
213 218 248 283 313 353 368 373 0
224 234 244 284 314 359 364 374 0
225 235 245 285 315 360 365 375 0
150 155 285 320 325 330 335 0
146 156 281 316 321 326 336 0
150 285 320 325 330 355 0
146 281 316 321 326 361 0
147 172 282 317 322 332 337 0
147 282 317 322 332 367 0
150 285 320 325 335 375 0
146 281 316 321 336 351 0
147 282 317 322 337 362 0
146 206 281 316 321 351 361 0
150 220 285 320 325 355 375 0
147 237 282 317 322 362 367 0
152 157 172 282 317 327 332 337 0
155 165 180 285 320 330 335 345 0
155 285 320 330 335 365 0
152 282 317 327 332 367 0
156 166 191 281 316 326 336 346 0
157 282 317 327 337 362 0
156 281 316 326 336 371 0
164 169 199 284 319 329 344 349 0
165 285 320 330 345 355 0
164 284 319 329 344 364 0
169 284 319 329 349 359 0
166 281 316 326 346 361 0
210 285 320 330 355 365 0
224 284 319 329 359 364 0
237 282 317 327 362 367 0
241 281 316 326 361 371 0
172 282 317 332 337 357 0
180 285 320 335 345 375 0
227 282 317 332 357 367 0
245 285 320 335 365 375 0
191 281 316 336 346 351 0
216 281 316 336 351 371 0
222 282 317 337 357 362 0
199 284 319 344 349 369 0
220 285 320 345 355 375 0
239 284 319 344 364 369 0
206 281 316 346 351 361 0
229 284 319 349 359 369 0
206 216 241 281 316 351 361 371 0
210 220 245 285 320 355 365 375 0
222 227 237 282 317 357 362 367 0
224 229 239 284 319 359 364 369 0
155 160 175 285 325 330 335 340 0
155 285 325 330 335 360 0
156 161 186 281 321 326 336 341 0
160 285 325 330 340 355 0
156 281 321 326 336 366 0
161 281 321 326 341 361 0
205 285 325 330 355 360 0
236 281 321 326 361 366 0
172 182 192 282 322 332 337 347 0
172 282 322 332 337 352 0
175 285 325 335 340 375 0
182 282 322 332 347 367 0
212 282 322 332 352 367 0
235 285 325 335 360 375 0
188 193 198 283 323 338 343 348 0
186 281 321 336 341 351 0
188 283 323 338 343 358 0
193 283 323 338 348 353 0
192 282 322 337 347 362 0
203 283 323 338 353 358 0
207 282 322 337 352 362 0
211 281 321 336 351 366 0
220 285 325 340 355 375 0
198 283 323 343 348 373 0
206 281 321 341 351 361 0
233 283 323 343 358 373 0
218 283 323 348 353 373 0
237 282 322 347 362 367 0
203 218 233 283 323 353 358 373 0
205 220 235 285 325 355 360 375 0
206 211 236 281 321 351 361 366 0
207 212 237 282 322 352 362 367 0
155 160 165 175 180 190 285 330 335 340 345 0
152 157 167 172 182 192 282 327 332 337 347 0
152 157 172 282 327 332 337 352 0
155 160 175 285 330 335 340 365 0
154 164 169 179 184 199 284 329 334 344 349 0
155 165 180 285 330 335 345 360 0
154 164 179 284 329 334 344 364 0
154 169 184 284 329 334 349 359 0
152 167 182 282 327 332 347 367 0
152 212 282 327 332 352 367 0
154 224 284 329 334 359 364 0
155 225 285 330 335 360 365 0
156 161 166 186 191 196 281 326 336 341 346 0
160 165 190 285 330 340 345 355 0
156 161 186 281 326 336 341 371 0
157 167 192 282 327 337 347 362 0
156 166 191 281 326 336 346 366 0
157 207 282 327 337 352 362 0
160 210 285 330 340 355 365 0
156 246 281 326 336 366 371 0
161 166 196 281 326 341 346 361 0
164 169 199 284 329 344 349 374 0
165 205 285 330 345 355 360 0
161 241 281 326 341 361 371 0
164 244 284 329 344 364 374 0
169 234 284 329 349 359 374 0
166 236 281 326 346 361 366 0
167 237 282 327 347 362 367 0
205 210 225 285 330 355 360 365 0
207 212 237 282 327 352 362 367 0
224 234 244 284 329 359 364 374 0
236 241 246 281 326 361 366 371 0
173 178 183 188 193 198 283 333 338 343 348 0
173 178 188 283 333 338 343 358 0
175 180 190 285 335 340 345 375 0
173 183 193 283 333 338 348 353 0
172 182 192 282 332 337 347 357 0
172 202 282 332 337 352 357 0
173 203 283 333 338 353 358 0
175 245 285 335 340 365 375 0
179 184 199 284 334 344 349 369 0
178 183 198 283 333 343 348 373 0
178 233 283 333 343 358 373 0
180 235 285 335 345 360 375 0
179 239 284 334 344 364 369 0
183 218 283 333 348 353 373 0
182 227 282 332 347 357 367 0
184 229 284 334 349 359 369 0
202 212 227 282 332 352 357 367 0
203 218 233 283 333 353 358 373 0
224 229 239 284 334 359 364 369 0
225 235 245 285 335 360 365 375 0
186 191 196 281 336 341 346 351 0
188 193 198 283 338 343 348 368 0
186 216 281 336 341 351 371 0
190 220 285 340 345 355 375 0
188 228 283 338 343 358 368 0
191 211 281 336 346 351 366 0
193 213 283 338 348 353 368 0
192 222 282 337 347 357 362 0
202 207 222 282 337 352 357 362 0
203 213 228 283 338 353 358 368 0
210 220 245 285 340 355 365 375 0
211 216 246 281 336 351 366 371 0
196 206 281 341 346 351 361 0
198 248 283 343 348 368 373 0
199 249 284 344 349 369 374 0
205 220 235 285 345 355 360 375 0
206 216 241 281 341 351 361 371 0
228 233 248 283 343 358 368 373 0
239 244 249 284 344 364 369 374 0
206 211 236 281 346 351 361 366 0
213 218 248 283 348 353 368 373 0
222 227 237 282 347 357 362 367 0
229 234 249 284 349 359 369 374 0
202 207 212 222 227 237 282 352 357 362 367 0
205 210 220 225 235 245 285 355 360 365 375 0
203 213 218 228 233 248 283 353 358 368 373 0
206 211 216 236 241 246 281 351 361 366 371 0
224 229 234 239 244 249 284 359 364 369 374 0
86 91 96 101 286 291 296 301 306 0
90 95 100 120 290 295 300 305 325 0
86 91 96 286 291 296 301 331 0
90 95 100 290 295 300 305 345 0
86 91 96 286 291 296 301 356 0
90 95 100 290 295 300 305 365 0
87 92 97 122 287 292 297 307 312 0
86 91 96 286 291 296 306 326 0
87 92 97 287 292 297 307 342 0
86 91 96 286 291 296 306 351 0
87 92 97 287 292 297 307 372 0
88 93 98 138 288 293 298 313 318 0
88 93 98 288 293 298 313 328 0
87 92 97 287 292 297 312 337 0
88 93 98 288 293 298 313 363 0
87 92 97 287 292 297 312 367 0
89 94 99 149 289 294 299 319 324 0
89 94 99 289 294 299 319 339 0
88 93 98 288 293 298 318 348 0
89 94 99 289 294 299 319 354 0
88 93 98 288 293 298 318 358 0
89 94 99 289 294 299 324 334 0
90 95 100 290 295 300 325 350 0
90 95 100 290 295 300 325 370 0
89 94 99 289 294 299 324 374 0
86 91 96 151 286 291 296 326 331 0
88 93 98 168 288 293 298 328 348 0
86 91 96 286 291 296 326 356 0
88 93 98 288 293 298 328 358 0
89 94 99 174 289 294 299 334 339 0
86 91 96 286 291 296 331 351 0
89 94 99 289 294 299 334 354 0
87 92 97 187 287 292 297 337 342 0
87 92 97 287 292 297 337 372 0
89 94 99 289 294 299 339 374 0
90 95 100 200 290 295 300 345 350 0
87 92 97 287 292 297 342 367 0
90 95 100 290 295 300 345 370 0
88 93 98 288 293 298 348 363 0
90 95 100 290 295 300 350 365 0
86 91 96 201 286 291 296 351 356 0
89 94 99 219 289 294 299 354 374 0
88 93 98 223 288 293 298 358 363 0
90 95 100 240 290 295 300 365 370 0
87 92 97 247 287 292 297 367 372 0
87 102 107 122 287 292 302 307 312 0
86 101 116 131 286 291 301 306 321 0
87 102 287 292 302 307 342 0
86 101 286 291 301 306 346 0
86 101 286 291 301 306 371 0
87 102 287 292 302 307 372 0
87 107 287 292 302 312 337 0
87 107 287 292 302 312 367 0
90 115 120 150 290 295 305 320 325 0
90 115 290 295 305 320 345 0
90 115 290 295 305 320 365 0
86 116 286 291 301 321 331 0
90 120 290 295 305 325 340 0
86 116 286 291 301 321 356 0
90 120 290 295 305 325 360 0
86 181 286 291 301 331 346 0
86 286 291 301 331 371 0
87 187 287 292 302 337 342 0
90 190 290 295 305 340 345 0
90 290 295 305 340 365 0
87 287 292 302 337 372 0
90 290 295 305 345 360 0
87 287 292 302 342 367 0
86 286 291 301 346 356 0
90 225 290 295 305 360 365 0
86 231 286 291 301 356 371 0
87 247 287 292 302 367 372 0
88 123 128 138 288 293 308 313 318 0
88 123 288 293 308 313 328 0
87 122 287 292 307 312 332 0
87 122 287 292 307 312 362 0
88 123 288 293 308 313 363 0
88 128 288 293 308 318 348 0
88 128 288 293 308 318 358 0
86 131 286 291 306 321 326 0
86 131 286 291 306 321 351 0
86 166 286 291 306 326 346 0
88 168 288 293 308 328 348 0
88 288 293 308 328 358 0
86 286 291 306 326 371 0
87 177 287 292 307 332 342 0
87 287 292 307 332 372 0
87 287 292 307 342 362 0
86 286 291 306 346 351 0
88 288 293 308 348 363 0
86 216 286 291 306 351 371 0
88 223 288 293 308 358 363 0
87 242 287 292 307 362 372 0
89 139 144 149 289 294 314 319 324 0
89 139 289 294 314 319 339 0
88 138 288 293 313 318 343 0
88 138 288 293 313 318 353 0
89 139 289 294 314 319 354 0
89 144 289 294 314 324 334 0
89 144 289 294 314 324 374 0
88 163 288 293 313 328 343 0
88 288 293 313 328 353 0
87 172 287 292 312 332 337 0
89 174 289 294 314 334 339 0
89 289 294 314 334 354 0
87 287 292 312 332 367 0
87 287 292 312 337 362 0
89 289 294 314 339 374 0
88 288 293 313 343 363 0
88 208 288 293 313 353 363 0
89 219 289 294 314 354 374 0
87 237 287 292 312 362 367 0
89 149 289 294 319 324 329 0
90 150 290 295 320 325 350 0
89 149 289 294 319 324 369 0
90 150 290 295 320 325 370 0
89 159 289 294 319 329 339 0
89 289 294 319 329 354 0
89 289 294 319 339 369 0
88 198 288 293 318 343 348 0
90 200 290 295 320 345 350 0
88 288 293 318 343 358 0
90 290 295 320 345 370 0
88 288 293 318 348 353 0
90 290 295 320 350 365 0
88 203 288 293 318 353 358 0
89 214 289 294 319 354 369 0
90 240 290 295 320 365 370 0
86 151 286 291 321 326 331 0
89 154 289 294 324 329 334 0
86 286 291 321 326 356 0
89 289 294 324 329 374 0
86 286 291 321 331 351 0
89 289 294 324 334 369 0
90 195 290 295 325 340 350 0
90 290 295 325 340 370 0
90 290 295 325 350 360 0
86 201 286 291 321 351 356 0
90 230 290 295 325 360 370 0
89 249 289 294 324 369 374 0
89 154 159 174 289 294 329 334 339 0
86 151 166 181 286 291 326 331 346 0
89 154 289 294 329 334 354 0
86 151 286 291 326 331 371 0
89 159 289 294 329 339 374 0
88 163 168 198 288 293 328 343 348 0
88 163 288 293 328 343 358 0
88 168 288 293 328 348 353 0
86 166 286 291 326 346 356 0
88 203 288 293 328 353 358 0
89 219 289 294 329 354 374 0
86 231 286 291 326 356 371 0
87 172 177 187 287 292 332 337 342 0
89 174 289 294 334 339 369 0
87 172 287 292 332 337 372 0
87 177 287 292 332 342 367 0
86 181 286 291 331 346 351 0
89 214 289 294 334 354 369 0
86 216 286 291 331 351 371 0
87 247 287 292 332 367 372 0
90 190 195 200 290 295 340 345 350 0
87 187 287 292 337 342 362 0
90 190 290 295 340 345 370 0
90 195 290 295 340 350 365 0
90 240 290 295 340 365 370 0
87 242 287 292 337 362 372 0
89 249 289 294 339 369 374 0
90 200 290 295 345 350 360 0
88 198 288 293 343 348 363 0
88 223 288 293 343 358 363 0
90 230 290 295 345 360 370 0
87 237 287 292 342 362 367 0
86 201 286 291 346 351 356 0
88 208 288 293 348 353 363 0
90 225 290 295 350 360 365 0
88 203 208 223 288 293 353 358 363 0
86 201 216 231 286 291 351 356 371 0
89 214 219 249 289 294 354 369 374 0
90 225 230 240 290 295 360 365 370 0
87 237 242 247 287 292 362 367 372 0
91 101 111 126 286 296 301 306 316 0
91 101 286 296 301 306 341 0
91 101 286 296 301 306 366 0
93 108 113 138 288 298 303 313 318 0
95 110 120 145 290 300 305 315 325 0
93 108 288 298 303 313 328 0
95 110 290 300 305 315 345 0
93 108 288 298 303 313 363 0
95 110 290 300 305 315 365 0
91 111 286 296 301 316 331 0
93 113 288 298 303 318 348 0
91 111 286 296 301 316 356 0
93 113 288 298 303 318 358 0
95 120 290 300 305 325 335 0
95 120 290 300 305 325 355 0
93 168 288 298 303 328 348 0
93 288 298 303 328 358 0
91 176 286 296 301 331 341 0
95 180 290 300 305 335 345 0
95 290 300 305 335 365 0
91 286 296 301 331 366 0
95 290 300 305 345 355 0
91 286 296 301 341 356 0
93 288 298 303 348 363 0
95 210 290 300 305 355 365 0
93 223 288 298 303 358 363 0
91 226 286 296 301 356 366 0
92 122 132 142 287 297 307 312 322 0
92 122 287 297 307 312 327 0
92 122 287 297 307 312 357 0
94 129 134 149 289 299 309 319 324 0
91 126 286 296 306 316 326 0
94 129 289 299 309 319 339 0
91 126 286 296 306 316 351 0
94 129 289 299 309 319 354 0
94 134 289 299 309 324 334 0
92 132 287 297 307 322 342 0
92 132 287 297 307 322 372 0
94 134 289 299 309 324 374 0
91 161 286 296 306 326 341 0
92 162 287 297 307 327 342 0
91 286 296 306 326 366 0
92 287 297 307 327 372 0
94 174 289 299 309 334 339 0
94 289 299 309 334 354 0
94 289 299 309 339 374 0
91 286 296 306 341 351 0
92 287 297 307 342 357 0
91 211 286 296 306 351 366 0
94 219 289 299 309 354 374 0
92 232 287 297 307 357 372 0
93 138 288 298 313 318 338 0
93 138 288 298 313 318 373 0
92 142 287 297 312 322 337 0
95 145 290 300 315 325 350 0
92 142 287 297 312 322 367 0
95 145 290 300 315 325 370 0
92 157 287 297 312 327 337 0
93 158 288 298 313 328 338 0
92 287 297 312 327 367 0
93 288 298 313 328 373 0
92 287 297 312 337 357 0
93 288 298 313 338 363 0
95 200 290 300 315 345 350 0
95 290 300 315 345 370 0
95 290 300 315 350 365 0
92 227 287 297 312 357 367 0
95 240 290 300 315 365 370 0
93 243 288 298 313 363 373 0
94 149 289 299 319 324 349 0
94 149 289 299 319 324 364 0
91 151 286 296 316 326 331 0
91 286 296 316 326 356 0
91 286 296 316 331 351 0
93 193 288 298 318 338 348 0
94 194 289 299 319 339 349 0
93 288 298 318 338 358 0
94 289 299 319 339 364 0
94 289 299 319 349 354 0
93 288 298 318 348 373 0
91 201 286 296 316 351 356 0
94 209 289 299 319 354 364 0
93 233 288 298 318 358 373 0
94 184 289 299 324 334 349 0
95 185 290 300 325 335 350 0
94 289 299 324 334 364 0
95 290 300 325 335 370 0
92 187 287 297 322 337 342 0
92 287 297 322 337 372 0
92 287 297 322 342 367 0
95 290 300 325 350 355 0
94 289 299 324 349 374 0
95 215 290 300 325 355 370 0
94 244 289 299 324 364 374 0
92 247 287 297 322 367 372 0
91 151 161 176 286 296 326 331 341 0
91 151 286 296 326 331 366 0
92 157 162 187 287 297 327 337 342 0
93 158 168 193 288 298 328 338 348 0
93 158 288 298 328 338 358 0
92 157 287 297 327 337 372 0
91 161 286 296 326 341 356 0
92 162 287 297 327 342 367 0
93 168 288 298 328 348 373 0
91 226 286 296 326 356 366 0
93 233 288 298 328 358 373 0
92 247 287 297 327 367 372 0
94 174 184 194 289 299 334 339 349 0
94 174 289 299 334 339 364 0
95 180 185 200 290 300 335 345 350 0
91 176 286 296 331 341 351 0
95 180 290 300 335 345 370 0
94 184 289 299 334 349 354 0
95 185 290 300 335 350 365 0
94 209 289 299 334 354 364 0
91 211 286 296 331 351 366 0
95 240 290 300 335 365 370 0
92 187 287 297 337 342 357 0
93 193 288 298 338 348 363 0
94 194 289 299 339 349 374 0
93 223 288 298 338 358 363 0
92 232 287 297 337 357 372 0
94 244 289 299 339 364 374 0
95 200 290 300 345 350 355 0
91 201 286 296 341 351 356 0
95 215 290 300 345 355 370 0
92 227 287 297 342 357 367 0
95 210 290 300 350 355 365 0
94 219 289 299 349 354 374 0
93 243 288 298 348 363 373 0
91 201 211 226 286 296 351 356 366 0
95 210 215 240 290 300 355 365 370 0
94 209 219 244 289 299 354 364 374 0
93 223 233 243 288 298 358 363 373 0
92 227 232 247 287 297 357 367 372 0
103 108 113 123 128 138 288 303 308 313 318 0
102 107 117 122 132 142 287 302 307 312 322 0
102 107 122 287 302 307 312 327 0
103 108 123 288 303 308 313 328 0
102 107 122 287 302 307 312 357 0
103 108 123 288 303 308 313 363 0
101 111 116 126 131 146 286 301 306 316 321 0
101 111 126 286 301 306 316 346 0
103 113 128 288 303 308 318 348 0
103 113 128 288 303 308 318 358 0
101 111 126 286 301 306 316 371 0
101 116 131 286 301 306 321 341 0
102 117 132 287 302 307 322 342 0
101 116 131 286 301 306 321 366 0
102 117 132 287 302 307 322 372 0
102 162 287 302 307 327 342 0
103 168 288 303 308 328 348 0
103 288 303 308 328 358 0
102 287 302 307 327 372 0
101 196 286 301 306 341 346 0
102 287 302 307 342 357 0
101 286 301 306 341 371 0
103 288 303 308 348 363 0
101 286 301 306 346 366 0
103 223 288 303 308 358 363 0
102 232 287 302 307 357 372 0
101 246 286 301 306 366 371 0
110 115 120 140 145 150 290 305 315 320 325 0
108 113 138 288 303 313 318 343 0
110 115 140 290 305 315 320 345 0
108 113 138 288 303 313 318 353 0
110 115 140 290 305 315 320 365 0
107 117 142 287 302 312 322 337 0
110 120 145 290 305 315 325 340 0
110 120 145 290 305 315 325 360 0
107 117 142 287 302 312 322 367 0
107 157 287 302 312 327 337 0
108 163 288 303 313 328 343 0
108 288 303 313 328 353 0
107 287 302 312 327 367 0
110 190 290 305 315 340 345 0
107 287 302 312 337 357 0
110 290 305 315 340 365 0
110 290 305 315 345 360 0
108 288 303 313 343 363 0
108 208 288 303 313 353 363 0
110 225 290 305 315 360 365 0
107 227 287 302 312 357 367 0
111 116 146 286 301 316 321 331 0
115 120 150 290 305 320 325 335 0
115 120 150 290 305 320 325 355 0
111 116 146 286 301 316 321 356 0
115 180 290 305 320 335 345 0
111 181 286 301 316 331 346 0
115 290 305 320 335 365 0
111 286 301 316 331 371 0
113 198 288 303 318 343 348 0
115 290 305 320 345 355 0
113 288 303 318 343 358 0
113 288 303 318 348 353 0
111 286 301 316 346 356 0
113 203 288 303 318 353 358 0
115 210 290 305 320 355 365 0
111 231 286 301 316 356 371 0
120 175 290 305 325 335 340 0
116 176 286 301 321 331 341 0
120 290 305 325 335 360 0
116 286 301 321 331 366 0
117 187 287 302 322 337 342 0
120 290 305 325 340 355 0
117 287 302 322 337 372 0
116 286 301 321 341 356 0
117 287 302 322 342 367 0
120 205 290 305 325 355 360 0
116 226 286 301 321 356 366 0
117 247 287 302 322 367 372 0
157 162 187 287 302 327 337 342 0
157 287 302 327 337 372 0
163 168 198 288 303 328 343 348 0
163 288 303 328 343 358 0
162 287 302 327 342 367 0
168 288 303 328 348 353 0
203 288 303 328 353 358 0
247 287 302 327 367 372 0
175 180 190 290 305 335 340 345 0
175 290 305 335 340 365 0
176 181 196 286 301 331 341 346 0
180 290 305 335 345 360 0
176 286 301 331 341 371 0
181 286 301 331 346 366 0
225 290 305 335 360 365 0
246 286 301 331 366 371 0
190 290 305 340 345 355 0
187 287 302 337 342 357 0
210 290 305 340 355 365 0
232 287 302 337 357 372 0
196 286 301 341 346 356 0
198 288 303 343 348 363 0
205 290 305 345 355 360 0
223 288 303 343 358 363 0
227 287 302 342 357 367 0
231 286 301 341 356 371 0
208 288 303 348 353 363 0
226 286 301 346 356 366 0
203 208 223 288 303 353 358 363 0
205 210 225 290 305 355 360 365 0
226 231 246 286 301 356 366 371 0
227 232 247 287 302 357 367 372 0
124 129 134 139 144 149 289 309 314 319 324 0
123 128 138 288 308 313 318 338 0
124 129 139 289 309 314 319 339 0
124 129 139 289 309 314 319 354 0
123 128 138 288 308 313 318 373 0
122 132 142 287 307 312 322 332 0
124 134 144 289 309 314 324 334 0
122 132 142 287 307 312 322 362 0
124 134 144 289 309 314 324 374 0
122 152 287 307 312 327 332 0
123 158 288 308 313 328 338 0
122 287 307 312 327 362 0
123 288 308 313 328 373 0
124 174 289 309 314 334 339 0
124 289 309 314 334 354 0
122 287 307 312 332 357 0
123 288 308 313 338 363 0
124 289 309 314 339 374 0
124 219 289 309 314 354 374 0
122 222 287 307 312 357 362 0
123 243 288 308 313 363 373 0
126 131 146 286 306 316 321 326 0
129 134 149 289 309 319 324 329 0
126 131 146 286 306 316 321 351 0
129 134 149 289 309 319 324 369 0
129 159 289 309 319 329 339 0
126 166 286 306 316 326 346 0
129 289 309 319 329 354 0
126 286 306 316 326 371 0
128 193 288 308 318 338 348 0
128 288 308 318 338 358 0
129 289 309 319 339 369 0
126 286 306 316 346 351 0
128 288 308 318 348 373 0
129 214 289 309 319 354 369 0
126 216 286 306 316 351 371 0
128 233 288 308 318 358 373 0
134 154 289 309 324 329 334 0
131 161 286 306 321 326 341 0
131 286 306 321 326 366 0
134 289 309 324 329 374 0
132 177 287 307 322 332 342 0
134 289 309 324 334 369 0
132 287 307 322 332 372 0
131 286 306 321 341 351 0
132 287 307 322 342 362 0
131 211 286 306 321 351 366 0
132 242 287 307 322 362 372 0
134 249 289 309 324 369 374 0
154 159 174 289 309 329 334 339 0
152 162 177 287 307 327 332 342 0
154 289 309 329 334 354 0
152 287 307 327 332 372 0
158 168 193 288 308 328 338 348 0
158 288 308 328 338 358 0
159 289 309 329 339 374 0
161 166 196 286 306 326 341 346 0
162 287 307 327 342 362 0
161 286 306 326 341 371 0
166 286 306 326 346 366 0
168 288 308 328 348 373 0
219 289 309 329 354 374 0
233 288 308 328 358 373 0
242 287 307 327 362 372 0
246 286 306 326 366 371 0
174 289 309 334 339 369 0
177 287 307 332 342 357 0
214 289 309 334 354 369 0
232 287 307 332 357 372 0
193 288 308 338 348 363 0
223 288 308 338 358 363 0
249 289 309 339 369 374 0
196 286 306 341 346 351 0
216 286 306 341 351 371 0
222 287 307 342 357 362 0
211 286 306 346 351 366 0
243 288 308 348 363 373 0
211 216 246 286 306 351 366 371 0
214 219 249 289 309 354 369 374 0
222 232 242 287 307 357 362 372 0
223 233 243 288 308 358 363 373 0
139 144 149 289 314 319 324 349 0
140 145 150 290 315 320 325 350 0
139 144 149 289 314 319 324 364 0
140 145 150 290 315 320 325 370 0
138 188 288 313 318 338 343 0
139 194 289 314 319 339 349 0
138 288 313 318 338 353 0
139 289 314 319 339 364 0
140 200 290 315 320 345 350 0
140 290 315 320 345 370 0
138 288 313 318 343 373 0
139 289 314 319 349 354 0
140 290 315 320 350 365 0
139 209 289 314 319 354 364 0
138 218 288 313 318 353 373 0
140 240 290 315 320 365 370 0
142 172 287 312 322 332 337 0
144 184 289 314 324 334 349 0
144 289 314 324 334 364 0
142 287 312 322 332 367 0
145 195 290 315 325 340 350 0
142 287 312 322 337 362 0
145 290 315 325 340 370 0
145 290 315 325 350 360 0
144 289 314 324 349 374 0
145 230 290 315 325 360 370 0
142 237 287 312 322 362 367 0
144 244 289 314 324 364 374 0
152 157 172 287 312 327 332 337 0
152 287 312 327 332 367 0
158 163 188 288 313 328 338 343 0
158 288 313 328 338 353 0
157 287 312 327 337 362 0
163 288 313 328 343 373 0
218 288 313 328 353 373 0
237 287 312 327 362 367 0
174 184 194 289 314 334 339 349 0
172 287 312 332 337 357 0
174 289 314 334 339 364 0
184 289 314 334 349 354 0
209 289 314 334 354 364 0
227 287 312 332 357 367 0
190 195 200 290 315 340 345 350 0
188 288 313 338 343 363 0
190 290 315 340 345 370 0
195 290 315 340 350 365 0
194 289 314 339 349 374 0
208 288 313 338 353 363 0
222 287 312 337 357 362 0
240 290 315 340 365 370 0
244 289 314 339 364 374 0
200 290 315 345 350 360 0
230 290 315 345 360 370 0
243 288 313 343 363 373 0
219 289 314 349 354 374 0
225 290 315 350 360 365 0
208 218 243 288 313 353 363 373 0
209 219 244 289 314 354 364 374 0
222 227 237 287 312 357 362 367 0
225 230 240 290 315 360 365 370 0
146 151 286 316 321 326 331 0
149 169 289 319 324 329 349 0
146 286 316 321 326 356 0
149 289 319 324 329 364 0
150 185 290 320 325 335 350 0
146 286 316 321 331 351 0
150 290 320 325 335 370 0
150 290 320 325 350 355 0
149 289 319 324 349 369 0
146 201 286 316 321 351 356 0
150 215 290 320 325 355 370 0
149 239 289 319 324 364 369 0
151 166 181 286 316 326 331 346 0
151 286 316 326 331 371 0
159 169 194 289 319 329 339 349 0
159 289 319 329 339 364 0
169 289 319 329 349 354 0
166 286 316 326 346 356 0
209 289 319 329 354 364 0
231 286 316 326 356 371 0
180 185 200 290 320 335 345 350 0
180 290 320 335 345 370 0
181 286 316 331 346 351 0
185 290 320 335 350 365 0
216 286 316 331 351 371 0
240 290 320 335 365 370 0
188 193 198 288 318 338 343 348 0
188 288 318 338 343 358 0
193 288 318 338 348 353 0
194 289 319 339 349 369 0
203 288 318 338 353 358 0
239 289 319 339 364 369 0
200 290 320 345 350 355 0
198 288 318 343 348 373 0
215 290 320 345 355 370 0
233 288 318 343 358 373 0
201 286 316 346 351 356 0
210 290 320 350 355 365 0
214 289 319 349 354 369 0
218 288 318 348 353 373 0
201 216 231 286 316 351 356 371 0
203 218 233 288 318 353 358 373 0
209 214 239 289 319 354 364 369 0
210 215 240 290 320 355 365 370 0
151 161 176 286 321 326 331 341 0
154 169 184 289 324 329 334 349 0
154 289 324 329 334 364 0
151 286 321 326 331 366 0
161 286 321 326 341 356 0
169 289 324 329 349 374 0
226 286 321 326 356 366 0
244 289 324 329 364 374 0
172 177 187 287 322 332 337 342 0
175 185 195 290 325 335 340 350 0
175 290 325 335 340 370 0
172 287 322 332 337 372 0
176 286 321 331 341 351 0
177 287 322 332 342 367 0
185 290 325 335 350 360 0
184 289 324 334 349 369 0
211 286 321 331 351 366 0
230 290 325 335 360 370 0
239 289 324 334 364 369 0
247 287 322 332 367 372 0
187 287 322 337 342 362 0
195 290 325 340 350 355 0
215 290 325 340 355 370 0
242 287 322 337 362 372 0
201 286 321 341 351 356 0
237 287 322 342 362 367 0
205 290 325 350 355 360 0
249 289 324 349 369 374 0
201 211 226 286 321 351 356 366 0
205 215 230 290 325 355 360 370 0
237 242 247 287 322 362 367 372 0
239 244 249 289 324 364 369 374 0
152 157 162 172 177 187 287 327 332 337 342 0
154 159 169 174 184 194 289 329 334 339 349 0
154 159 174 289 329 334 339 364 0
152 157 172 287 327 332 337 372 0
151 161 166 176 181 196 286 326 331 341 346 0
152 162 177 287 327 332 342 367 0
151 161 176 286 326 331 341 371 0
154 169 184 289 329 334 349 354 0
151 166 181 286 326 331 346 366 0
154 209 289 329 334 354 364 0
151 246 286 326 331 366 371 0
152 247 287 327 332 367 372 0
158 163 168 188 193 198 288 328 338 343 348 0
158 163 188 288 328 338 343 358 0
157 162 187 287 327 337 342 362 0
158 168 193 288 328 338 348 353 0
159 169 194 289 329 339 349 374 0
158 203 288 328 338 353 358 0
157 242 287 327 337 362 372 0
159 244 289 329 339 364 374 0
161 166 196 286 326 341 346 356 0
163 168 198 288 328 343 348 373 0
161 231 286 326 341 356 371 0
163 233 288 328 343 358 373 0
162 237 287 327 342 362 367 0
168 218 288 328 348 353 373 0
169 219 289 329 349 354 374 0
166 226 286 326 346 356 366 0
203 218 233 288 328 353 358 373 0
209 219 244 289 329 354 364 374 0
226 231 246 286 326 356 366 371 0
237 242 247 287 327 362 367 372 0
175 180 185 190 195 200 290 335 340 345 350 0
172 177 187 287 332 337 342 357 0
175 180 190 290 335 340 345 370 0
175 185 195 290 335 340 350 365 0
174 184 194 289 334 339 349 369 0
172 232 287 332 337 357 372 0
174 239 289 334 339 364 369 0
175 240 290 335 340 365 370 0
176 181 196 286 331 341 346 351 0
180 185 200 290 335 345 350 360 0
176 216 286 331 341 351 371 0
177 227 287 332 342 357 367 0
180 230 290 335 345 360 370 0
181 211 286 331 346 351 366 0
184 214 289 334 349 354 369 0
185 225 290 335 350 360 365 0
209 214 239 289 334 354 364 369 0
211 216 246 286 331 351 366 371 0
225 230 240 290 335 360 365 370 0
227 232 247 287 332 357 367 372 0
190 195 200 290 340 345 350 355 0
188 193 198 288 338 343 348 363 0
190 215 290 340 345 355 370 0
187 222 287 337 342 357 362 0
188 223 288 338 343 358 363 0
193 208 288 338 348 353 363 0
195 210 290 340 350 355 365 0
194 249 289 339 349 369 374 0
203 208 223 288 338 353 358 363 0
210 215 240 290 340 355 365 370 0
222 232 242 287 337 357 362 372 0
239 244 249 289 339 364 369 374 0
196 201 286 341 346 351 356 0
200 205 290 345 350 355 360 0
198 243 288 343 348 363 373 0
205 215 230 290 345 355 360 370 0
201 216 231 286 341 351 356 371 0
222 227 237 287 342 357 362 367 0
223 233 243 288 343 358 363 373 0
205 210 225 290 350 355 360 365 0
201 211 226 286 346 351 356 366 0
208 218 243 288 348 353 363 373 0
214 219 249 289 349 354 369 374 0
205 210 215 225 230 240 290 355 360 365 370 0
203 208 218 223 233 243 288 353 358 363 373 0
201 211 216 226 231 246 286 351 356 366 371 0
209 214 219 239 244 249 289 354 364 369 374 0
222 227 232 237 242 247 287 357 362 367 372 0
96 101 106 121 291 296 301 306 311 0
100 105 120 135 295 300 305 310 325 0
96 101 291 296 301 306 336 0
100 105 295 300 305 310 345 0
96 101 291 296 301 306 361 0
100 105 295 300 305 310 365 0
96 106 291 296 301 311 331 0
96 106 291 296 301 311 356 0
99 114 119 149 294 299 304 319 324 0
99 114 294 299 304 319 339 0
99 114 294 299 304 319 354 0
100 120 295 300 305 325 330 0
99 119 294 299 304 324 334 0
99 119 294 299 304 324 374 0
100 120 295 300 305 325 375 0
100 165 295 300 305 330 345 0
100 295 300 305 330 365 0
96 171 291 296 301 331 336 0
99 174 294 299 304 334 339 0
99 294 299 304 334 354 0
96 291 296 301 331 361 0
96 291 296 301 336 356 0
99 294 299 304 339 374 0
100 295 300 305 345 375 0
99 219 294 299 304 354 374 0
96 221 291 296 301 356 361 0
100 245 295 300 305 365 375 0
97 122 127 137 292 297 307 312 317 0
96 121 291 296 306 311 326 0
97 122 292 297 307 312 347 0
96 121 291 296 306 311 351 0
97 122 292 297 307 312 352 0
97 127 292 297 307 317 342 0
97 127 292 297 307 317 372 0
100 135 295 300 310 325 350 0
100 135 295 300 310 325 370 0
96 156 291 296 306 326 336 0
96 291 296 306 326 361 0
96 291 296 306 336 351 0
97 197 292 297 307 342 347 0
100 200 295 300 310 345 350 0
97 292 297 307 342 352 0
100 295 300 310 345 370 0
100 295 300 310 350 365 0
97 292 297 307 347 372 0
96 206 291 296 306 351 361 0
97 217 292 297 307 352 372 0
100 240 295 300 310 365 370 0
98 138 143 148 293 298 313 318 323 0
98 138 293 298 313 318 333 0
97 137 292 297 312 317 337 0
97 137 292 297 312 317 367 0
98 138 293 298 313 318 368 0
98 143 293 298 313 323 328 0
98 143 293 298 313 323 363 0
96 151 291 296 311 326 331 0
98 153 293 298 313 328 333 0
96 291 296 311 326 356 0
98 293 298 313 328 368 0
96 291 296 311 331 351 0
98 293 298 313 333 363 0
97 192 292 297 312 337 347 0
97 292 297 312 337 352 0
97 292 297 312 347 367 0
96 201 291 296 311 351 356 0
97 212 292 297 312 352 367 0
98 238 293 298 313 363 368 0
99 149 294 299 319 324 344 0
98 148 293 298 318 323 348 0
98 148 293 298 318 323 358 0
99 149 294 299 319 324 359 0
98 183 293 298 318 333 348 0
98 293 298 318 333 358 0
97 187 292 297 317 337 342 0
99 189 294 299 319 339 344 0
99 294 299 319 339 359 0
97 292 297 317 337 372 0
99 294 299 319 344 354 0
97 292 297 317 342 367 0
98 293 298 318 348 368 0
99 204 294 299 319 354 359 0
98 228 293 298 318 358 368 0
97 247 292 297 317 367 372 0
98 168 293 298 323 328 348 0
100 170 295 300 325 330 350 0
98 293 298 323 328 358 0
100 295 300 325 330 370 0
99 179 294 299 324 334 344 0
99 294 299 324 334 359 0
99 294 299 324 344 374 0
98 293 298 323 348 363 0
100 295 300 325 350 375 0
98 223 293 298 323 358 363 0
99 234 294 299 324 359 374 0
100 250 295 300 325 370 375 0
96 151 156 171 291 296 326 331 336 0
98 153 168 183 293 298 328 333 348 0
98 153 293 298 328 333 358 0
96 151 291 296 326 331 361 0
96 156 291 296 326 336 356 0
100 165 170 200 295 300 330 345 350 0
100 165 295 300 330 345 370 0
100 170 295 300 330 350 365 0
98 168 293 298 328 348 368 0
96 221 291 296 326 356 361 0
98 228 293 298 328 358 368 0
100 240 295 300 330 365 370 0
99 174 179 189 294 299 334 339 344 0
96 171 291 296 331 336 351 0
99 174 294 299 334 339 359 0
99 179 294 299 334 344 354 0
98 183 293 298 333 348 363 0
99 204 294 299 334 354 359 0
96 206 291 296 331 351 361 0
98 223 293 298 333 358 363 0
97 187 192 197 292 297 337 342 347 0
97 187 292 297 337 342 352 0
99 189 294 299 339 344 374 0
97 192 292 297 337 347 372 0
96 201 291 296 336 351 356 0
97 217 292 297 337 352 372 0
99 234 294 299 339 359 374 0
97 197 292 297 342 347 367 0
100 200 295 300 345 350 375 0
97 212 292 297 342 352 367 0
99 219 294 299 344 354 374 0
100 250 295 300 345 370 375 0
98 238 293 298 348 363 368 0
100 245 295 300 350 365 375 0
97 247 292 297 347 367 372 0
96 201 206 221 291 296 351 356 361 0
99 204 219 234 294 299 354 359 374 0
97 212 217 247 292 297 352 367 372 0
98 223 228 238 293 298 358 363 368 0
100 240 245 250 295 300 365 370 375 0
102 107 112 122 127 137 292 302 307 312 317 0
101 106 116 121 131 141 291 301 306 311 321 0
101 106 121 291 301 306 311 346 0
102 107 122 292 302 307 312 347 0
102 107 122 292 302 307 312 352 0
101 106 121 291 301 306 311 371 0
105 115 120 130 135 150 295 305 310 320 325 0
102 112 127 292 302 307 317 342 0
105 115 130 295 305 310 320 345 0
105 115 130 295 305 310 320 365 0
102 112 127 292 302 307 317 372 0
101 116 131 291 301 306 321 336 0
105 120 135 295 305 310 325 340 0
105 120 135 295 305 310 325 360 0
101 116 131 291 301 306 321 361 0
105 190 295 305 310 340 345 0
101 191 291 301 306 336 346 0
105 295 305 310 340 365 0
101 291 301 306 336 371 0
102 197 292 302 307 342 347 0
102 292 302 307 342 352 0
105 295 305 310 345 360 0
101 291 301 306 346 361 0
102 292 302 307 347 372 0
102 217 292 302 307 352 372 0
105 225 295 305 310 360 365 0
101 241 291 301 306 361 371 0
109 114 119 139 144 149 294 304 314 319 324 0
107 112 137 292 302 312 317 337 0
109 114 139 294 304 314 319 339 0
109 114 139 294 304 314 319 354 0
107 112 137 292 302 312 317 367 0
106 116 141 291 301 311 321 331 0
109 119 144 294 304 314 324 334 0
106 116 141 291 301 311 321 356 0
109 119 144 294 304 314 324 374 0
109 174 294 304 314 334 339 0
106 181 291 301 311 331 346 0
109 294 304 314 334 354 0
106 291 301 311 331 371 0
107 192 292 302 312 337 347 0
107 292 302 312 337 352 0
109 294 304 314 339 374 0
106 291 301 311 346 356 0
107 292 302 312 347 367 0
107 212 292 302 312 352 367 0
109 219 294 304 314 354 374 0
106 231 291 301 311 356 371 0
114 119 149 294 304 319 324 329 0
115 120 150 295 305 320 325 330 0
114 119 149 294 304 319 324 369 0
115 120 150 295 305 320 325 375 0
114 159 294 304 319 329 339 0
115 165 295 305 320 330 345 0
114 294 304 319 329 354 0
115 295 305 320 330 365 0
112 187 292 302 317 337 342 0
114 294 304 319 339 369 0
112 292 302 317 337 372 0
112 292 302 317 342 367 0
115 295 305 320 345 375 0
114 214 294 304 319 354 369 0
115 245 295 305 320 365 375 0
112 247 292 302 317 367 372 0
119 154 294 304 324 329 334 0
120 160 295 305 325 330 340 0
120 295 305 325 330 360 0
119 294 304 324 329 374 0
116 171 291 301 321 331 336 0
116 291 301 321 331 361 0
119 294 304 324 334 369 0
116 291 301 321 336 356 0
120 295 305 325 340 375 0
116 221 291 301 321 356 361 0
120 235 295 305 325 360 375 0
119 249 294 304 324 369 374 0
154 159 174 294 304 329 334 339 0
154 294 304 329 334 354 0
160 165 190 295 305 330 340 345 0
160 295 305 330 340 365 0
159 294 304 329 339 374 0
165 295 305 330 345 360 0
219 294 304 329 354 374 0
225 295 305 330 360 365 0
171 181 191 291 301 331 336 346 0
174 294 304 334 339 369 0
171 291 301 331 336 371 0
181 291 301 331 346 361 0
214 294 304 334 354 369 0
241 291 301 331 361 371 0
187 192 197 292 302 337 342 347 0
187 292 302 337 342 352 0
190 295 305 340 345 375 0
191 291 301 336 346 356 0
192 292 302 337 347 372 0
217 292 302 337 352 372 0
231 291 301 336 356 371 0
245 295 305 340 365 375 0
249 294 304 339 369 374 0
197 292 302 342 347 367 0
212 292 302 342 352 367 0
235 295 305 345 360 375 0
221 291 301 346 356 361 0
247 292 302 347 367 372 0
212 217 247 292 302 352 367 372 0
214 219 249 294 304 354 369 374 0
221 231 241 291 301 356 361 371 0
225 235 245 295 305 360 365 375 0
123 128 133 138 143 148 293 308 313 318 323 0
122 127 137 292 307 312 317 332 0
123 128 138 293 308 313 318 333 0
122 127 137 292 307 312 317 362 0
123 128 138 293 308 313 318 368 0
121 131 141 291 306 311 321 326 0
123 133 143 293 308 313 323 328 0
121 131 141 291 306 311 321 351 0
123 133 143 293 308 313 323 363 0
123 153 293 308 313 328 333 0
121 166 291 306 311 326 346 0
123 293 308 313 328 368 0
121 291 306 311 326 371 0
122 182 292 307 312 332 347 0
122 292 307 312 332 352 0
123 293 308 313 333 363 0
121 291 306 311 346 351 0
122 292 307 312 347 362 0
122 207 292 307 312 352 362 0
121 216 291 306 311 351 371 0
123 238 293 308 313 363 368 0
128 133 148 293 308 318 323 348 0
130 135 150 295 310 320 325 350 0
128 133 148 293 308 318 323 358 0
130 135 150 295 310 320 325 370 0
127 177 292 307 317 332 342 0
128 183 293 308 318 333 348 0
128 293 308 318 333 358 0
127 292 307 317 332 372 0
130 200 295 310 320 345 350 0
127 292 307 317 342 362 0
130 295 310 320 345 370 0
130 295 310 320 350 365 0
128 293 308 318 348 368 0
128 228 293 308 318 358 368 0
130 240 295 310 320 365 370 0
127 242 292 307 317 362 372 0
131 156 291 306 321 326 336 0
133 168 293 308 323 328 348 0
133 293 308 323 328 358 0
131 291 306 321 326 361 0
135 195 295 310 325 340 350 0
131 291 306 321 336 351 0
135 295 310 325 340 370 0
135 295 310 325 350 360 0
133 293 308 323 348 363 0
131 206 291 306 321 351 361 0
133 223 293 308 323 358 363 0
135 230 295 310 325 360 370 0
153 168 183 293 308 328 333 348 0
153 293 308 328 333 358 0
156 166 191 291 306 326 336 346 0
156 291 306 326 336 371 0
166 291 306 326 346 361 0
168 293 308 328 348 368 0
228 293 308 328 358 368 0
241 291 306 326 361 371 0
177 182 197 292 307 332 342 347 0
177 292 307 332 342 352 0
183 293 308 333 348 363 0
182 292 307 332 347 372 0
217 292 307 332 352 372 0
223 293 308 333 358 363 0
190 195 200 295 310 340 345 350 0
190 295 310 340 345 370 0
191 291 306 336 346 351 0
195 295 310 340 350 365 0
216 291 306 336 351 371 0
240 295 310 340 365 370 0
200 295 310 345 350 360 0
197 292 307 342 347 362 0
207 292 307 342 352 362 0
230 295 310 345 360 370 0
206 291 306 346 351 361 0
225 295 310 350 360 365 0
238 293 308 348 363 368 0
242 292 307 347 362 372 0
206 216 241 291 306 351 361 371 0
207 217 242 292 307 352 362 372 0
223 228 238 293 308 358 363 368 0
225 230 240 295 310 360 365 370 0
138 143 148 293 313 318 323 343 0
139 144 149 294 314 319 324 344 0
138 143 148 293 313 318 323 353 0
139 144 149 294 314 319 324 359 0
137 172 292 312 317 332 337 0
138 178 293 313 318 333 343 0
138 293 313 318 333 353 0
137 292 312 317 332 367 0
139 189 294 314 319 339 344 0
139 294 314 319 339 359 0
137 292 312 317 337 362 0
139 294 314 319 344 354 0
138 293 313 318 343 368 0
139 204 294 314 319 354 359 0
138 213 293 313 318 353 368 0
137 237 292 312 317 362 367 0
141 151 291 311 321 326 331 0
143 163 293 313 323 328 343 0
143 293 313 323 328 353 0
141 291 311 321 326 356 0
144 179 294 314 324 334 344 0
141 291 311 321 331 351 0
144 294 314 324 334 359 0
143 293 313 323 343 363 0
144 294 314 324 344 374 0
141 201 291 311 321 351 356 0
143 208 293 313 323 353 363 0
144 234 294 314 324 359 374 0
153 163 178 293 313 328 333 343 0
151 166 181 291 311 326 331 346 0
153 293 313 328 333 353 0
151 291 311 326 331 371 0
163 293 313 328 343 368 0
166 291 311 326 346 356 0
213 293 313 328 353 368 0
231 291 311 326 356 371 0
174 179 189 294 314 334 339 344 0
172 182 192 292 312 332 337 347 0
172 292 312 332 337 352 0
174 294 314 334 339 359 0
179 294 314 334 344 354 0
178 293 313 333 343 363 0
181 291 311 331 346 351 0
182 292 312 332 347 367 0
204 294 314 334 354 359 0
208 293 313 333 353 363 0
212 292 312 332 352 367 0
216 291 311 331 351 371 0
189 294 314 339 344 374 0
192 292 312 337 347 362 0
207 292 312 337 352 362 0
234 294 314 339 359 374 0
219 294 314 344 354 374 0
238 293 313 343 363 368 0
201 291 311 346 351 356 0
237 292 312 347 362 367 0
201 216 231 291 311 351 356 371 0
204 219 234 294 314 354 359 374 0
207 212 237 292 312 352 362 367 0
208 213 238 293 313 353 363 368 0
149 164 294 319 324 329 344 0
150 170 295 320 325 330 350 0
149 294 319 324 329 359 0
150 295 320 325 330 370 0
148 198 293 318 323 343 348 0
148 293 318 323 343 358 0
149 294 319 324 344 369 0
148 293 318 323 348 353 0
150 295 320 325 350 375 0
148 203 293 318 323 353 358 0
149 229 294 319 324 359 369 0
150 250 295 320 325 370 375 0
159 164 189 294 319 329 339 344 0
159 294 319 329 339 359 0
165 170 200 295 320 330 345 350 0
164 294 319 329 344 354 0
165 295 320 330 345 370 0
170 295 320 330 350 365 0
204 294 319 329 354 359 0
240 295 320 330 365 370 0
172 177 187 292 317 332 337 342 0
172 292 317 332 337 372 0
178 183 198 293 318 333 343 348 0
178 293 318 333 343 358 0
177 292 317 332 342 367 0
183 293 318 333 348 353 0
203 293 318 333 353 358 0
247 292 317 332 367 372 0
187 292 317 337 342 362 0
189 294 319 339 344 369 0
229 294 319 339 359 369 0
242 292 317 337 362 372 0
198 293 318 343 348 368 0
200 295 320 345 350 375 0
214 294 319 344 354 369 0
228 293 318 343 358 368 0
237 292 317 342 362 367 0
250 295 320 345 370 375 0
213 293 318 348 353 368 0
245 295 320 350 365 375 0
203 213 228 293 318 353 358 368 0
204 214 229 294 319 354 359 369 0
237 242 247 292 317 362 367 372 0
240 245 250 295 320 365 370 375 0
151 156 171 291 321 326 331 336 0
154 164 179 294 324 329 334 344 0
154 294 324 329 334 359 0
151 291 321 326 331 361 0
160 170 195 295 325 330 340 350 0
156 291 321 326 336 356 0
160 295 325 330 340 370 0
163 168 198 293 323 328 343 348 0
163 293 323 328 343 358 0
164 294 324 329 344 374 0
168 293 323 328 348 353 0
170 295 325 330 350 360 0
203 293 323 328 353 358 0
221 291 321 326 356 361 0
230 295 325 330 360 370 0
234 294 324 329 359 374 0
171 291 321 331 336 351 0
179 294 324 334 344 369 0
206 291 321 331 351 361 0
229 294 324 334 359 369 0
195 295 325 340 350 375 0
201 291 321 336 351 356 0
250 295 325 340 370 375 0
198 293 323 343 348 363 0
223 293 323 343 358 363 0
249 294 324 344 369 374 0
208 293 323 348 353 363 0
235 295 325 350 360 375 0
201 206 221 291 321 351 356 361 0
203 208 223 293 323 353 358 363 0
229 234 249 294 324 359 369 374 0
230 235 250 295 325 360 370 375 0
154 159 164 174 179 189 294 329 334 339 344 0
151 156 166 171 181 191 291 326 331 336 346 0
154 159 174 294 329 334 339 359 0
151 156 171 291 326 331 336 371 0
153 163 168 178 183 198 293 328 333 343 348 0
154 164 179 294 329 334 344 354 0
153 163 178 293 328 333 343 358 0
153 168 183 293 328 333 348 353 0
151 166 181 291 326 331 346 361 0
153 203 293 328 333 353 358 0
154 204 294 329 334 354 359 0
151 241 291 326 331 361 371 0
160 165 170 190 195 200 295 330 340 345 350 0
160 165 190 295 330 340 345 370 0
159 164 189 294 329 339 344 374 0
156 166 191 291 326 336 346 356 0
160 170 195 295 330 340 350 365 0
156 231 291 326 336 356 371 0
159 234 294 329 339 359 374 0
160 240 295 330 340 365 370 0
165 170 200 295 330 345 350 360 0
163 168 198 293 328 343 348 368 0
164 219 294 329 344 354 374 0
163 228 293 328 343 358 368 0
165 230 295 330 345 360 370 0
168 213 293 328 348 353 368 0
166 221 291 326 346 356 361 0
170 225 295 330 350 360 365 0
203 213 228 293 328 353 358 368 0
204 219 234 294 329 354 359 374 0
225 230 240 295 330 360 365 370 0
221 231 241 291 326 356 361 371 0
172 177 182 187 192 197 292 332 337 342 347 0
172 177 187 292 332 337 342 352 0
174 179 189 294 334 339 344 369 0
171 181 191 291 331 336 346 351 0
172 182 192 292 332 337 347 372 0
171 216 291 331 336 351 371 0
172 217 292 332 337 352 372 0
174 229 294 334 339 359 369 0
178 183 198 293 333 343 348 363 0
177 182 197 292 332 342 347 367 0
177 212 292 332 342 352 367 0
179 214 294 334 344 354 369 0
178 223 293 333 343 358 363 0
181 206 291 331 346 351 361 0
183 208 293 333 348 353 363 0
182 247 292 332 347 367 372 0
203 208 223 293 333 353 358 363 0
204 214 229 294 334 354 359 369 0
206 216 241 291 331 351 361 371 0
212 217 247 292 332 352 367 372 0
187 192 197 292 337 342 347 362 0
190 195 200 295 340 345 350 375 0
187 207 292 337 342 352 362 0
189 249 294 339 344 369 374 0
190 250 295 340 345 370 375 0
191 201 291 336 346 351 356 0
192 242 292 337 347 362 372 0
195 245 295 340 350 365 375 0
201 216 231 291 336 351 356 371 0
207 217 242 292 337 352 362 372 0
229 234 249 294 339 359 369 374 0
240 245 250 295 340 365 370 375 0
200 235 295 345 350 360 375 0
197 237 292 342 347 362 367 0
198 238 293 343 348 363 368 0
207 212 237 292 342 352 362 367 0
214 219 249 294 344 354 369 374 0
223 228 238 293 343 358 363 368 0
230 235 250 295 345 360 370 375 0
201 206 221 291 346 351 356 361 0
208 213 238 293 348 353 363 368 0
225 235 245 295 350 360 365 375 0
237 242 247 292 347 362 367 372 0
203 208 213 223 228 238 293 353 358 363 368 0
201 206 216 221 231 241 291 351 356 361 371 0
204 214 219 229 234 249 294 354 359 369 374 0
207 212 217 237 242 247 292 352 362 367 372 0
225 230 235 240 245 250 295 360 365 370 375 0
101 106 111 121 126 136 296 301 306 311 316 0
105 110 120 125 135 145 300 305 310 315 325 0
101 106 121 296 301 306 311 341 0
105 110 125 300 305 310 315 345 0
105 110 125 300 305 310 315 365 0
101 106 121 296 301 306 311 366 0
104 114 119 129 134 149 299 304 309 319 324 0
101 111 126 296 301 306 316 336 0
104 114 129 299 304 309 319 339 0
104 114 129 299 304 309 319 354 0
101 111 126 296 301 306 316 361 0
104 119 134 299 304 309 324 334 0
105 120 135 300 305 310 325 335 0
105 120 135 300 305 310 325 355 0
104 119 134 299 304 309 324 374 0
104 174 299 304 309 334 339 0
105 180 300 305 310 335 345 0
104 299 304 309 334 354 0
105 300 305 310 335 365 0
101 186 296 301 306 336 341 0
101 296 301 306 336 366 0
104 299 304 309 339 374 0
105 300 305 310 345 355 0
101 296 301 306 341 361 0
105 210 300 305 310 355 365 0
104 219 299 304 309 354 374 0
101 236 296 301 306 361 366 0
108 113 118 138 143 148 298 303 313 318 323 0
106 111 136 296 301 311 316 331 0
108 113 138 298 303 313 318 333 0
106 111 136 296 301 311 316 356 0
108 113 138 298 303 313 318 368 0
108 118 143 298 303 313 323 328 0
110 120 145 300 305 315 325 330 0
108 118 143 298 303 313 323 363 0
110 120 145 300 305 315 325 375 0
108 153 298 303 313 328 333 0
110 165 300 305 315 330 345 0
110 300 305 315 330 365 0
108 298 303 313 328 368 0
106 176 296 301 311 331 341 0
108 298 303 313 333 363 0
106 296 301 311 331 366 0
106 296 301 311 341 356 0
110 300 305 315 345 375 0
106 226 296 301 311 356 366 0
108 238 298 303 313 363 368 0
110 245 300 305 315 365 375 0
113 118 148 298 303 318 323 348 0
114 119 149 299 304 319 324 349 0
113 118 148 298 303 318 323 358 0
114 119 149 299 304 319 324 364 0
111 171 296 301 316 331 336 0
113 183 298 303 318 333 348 0
113 298 303 318 333 358 0
111 296 301 316 331 361 0
114 194 299 304 319 339 349 0
111 296 301 316 336 356 0
114 299 304 319 339 364 0
114 299 304 319 349 354 0
113 298 303 318 348 368 0
114 209 299 304 319 354 364 0
111 221 296 301 316 356 361 0
113 228 298 303 318 358 368 0
120 155 300 305 325 330 335 0
118 168 298 303 323 328 348 0
120 300 305 325 330 355 0
118 298 303 323 328 358 0
119 184 299 304 324 334 349 0
119 299 304 324 334 364 0
120 300 305 325 335 375 0
118 298 303 323 348 363 0
119 299 304 324 349 374 0
120 220 300 305 325 355 375 0
118 223 298 303 323 358 363 0
119 244 299 304 324 364 374 0
155 165 180 300 305 330 335 345 0
153 168 183 298 303 328 333 348 0
153 298 303 328 333 358 0
155 300 305 330 335 365 0
165 300 305 330 345 355 0
168 298 303 328 348 368 0
210 300 305 330 355 365 0
228 298 303 328 358 368 0
171 176 186 296 301 331 336 341 0
174 184 194 299 304 334 339 349 0
174 299 304 334 339 364 0
171 296 301 331 336 366 0
176 296 301 331 341 361 0
180 300 305 335 345 375 0
184 299 304 334 349 354 0
183 298 303 333 348 363 0
209 299 304 334 354 364 0
223 298 303 333 358 363 0
236 296 301 331 361 366 0
245 300 305 335 365 375 0
186 296 301 336 341 356 0
194 299 304 339 349 374 0
226 296 301 336 356 366 0
244 299 304 339 364 374 0
220 300 305 345 355 375 0
221 296 301 341 356 361 0
219 299 304 349 354 374 0
238 298 303 348 363 368 0
209 219 244 299 304 354 364 374 0
210 220 245 300 305 355 365 375 0
221 226 236 296 301 356 361 366 0
223 228 238 298 303 358 363 368 0
122 127 132 137 142 147 297 307 312 317 322 0
121 126 136 296 306 311 316 326 0
122 127 137 297 307 312 317 327 0
121 126 136 296 306 311 316 351 0
122 127 137 297 307 312 317 357 0
122 132 142 297 307 312 322 347 0
125 135 145 300 310 315 325 350 0
122 132 142 297 307 312 322 352 0
125 135 145 300 310 315 325 370 0
121 161 296 306 311 326 341 0
122 167 297 307 312 327 347 0
122 297 307 312 327 352 0
121 296 306 311 326 366 0
125 200 300 310 315 345 350 0
121 296 306 311 341 351 0
125 300 310 315 345 370 0
122 297 307 312 347 357 0
125 300 310 315 350 365 0
122 202 297 307 312 352 357 0
121 211 296 306 311 351 366 0
125 240 300 310 315 365 370 0
127 132 147 297 307 317 322 342 0
129 134 149 299 309 319 324 344 0
129 134 149 299 309 319 324 359 0
127 132 147 297 307 317 322 372 0
126 156 296 306 316 326 336 0
127 162 297 307 317 327 342 0
126 296 306 316 326 361 0
127 297 307 317 327 372 0
129 189 299 309 319 339 344 0
126 296 306 316 336 351 0
129 299 309 319 339 359 0
129 299 309 319 344 354 0
127 297 307 317 342 357 0
129 204 299 309 319 354 359 0
126 206 296 306 316 351 361 0
127 232 297 307 317 357 372 0
134 179 299 309 324 334 344 0
135 185 300 310 325 335 350 0
134 299 309 324 334 359 0
135 300 310 325 335 370 0
132 197 297 307 322 342 347 0
132 297 307 322 342 352 0
134 299 309 324 344 374 0
135 300 310 325 350 355 0
132 297 307 322 347 372 0
135 215 300 310 325 355 370 0
132 217 297 307 322 352 372 0
134 234 299 309 324 359 374 0
156 161 186 296 306 326 336 341 0
156 296 306 326 336 366 0
162 167 197 297 307 327 342 347 0
162 297 307 327 342 352 0
161 296 306 326 341 361 0
167 297 307 327 347 372 0
217 297 307 327 352 372 0
236 296 306 326 361 366 0
174 179 189 299 309 334 339 344 0
174 299 309 334 339 359 0
180 185 200 300 310 335 345 350 0
179 299 309 334 344 354 0
180 300 310 335 345 370 0
185 300 310 335 350 365 0
204 299 309 334 354 359 0
240 300 310 335 365 370 0
186 296 306 336 341 351 0
189 299 309 339 344 374 0
211 296 306 336 351 366 0
234 299 309 339 359 374 0
200 300 310 345 350 355 0
197 297 307 342 347 357 0
202 297 307 342 352 357 0
206 296 306 341 351 361 0
215 300 310 345 355 370 0
219 299 309 344 354 374 0
210 300 310 350 355 365 0
232 297 307 347 357 372 0
202 217 232 297 307 352 357 372 0
204 219 234 299 309 354 359 374 0
206 211 236 296 306 351 361 366 0
210 215 240 300 310 355 365 370 0
137 142 147 297 312 317 322 337 0
138 143 148 298 313 318 323 338 0
137 142 147 297 312 317 322 367 0
138 143 148 298 313 318 323 373 0
136 151 296 311 316 326 331 0
137 157 297 312 317 327 337 0
136 296 311 316 326 356 0
137 297 312 317 327 367 0
138 173 298 313 318 333 338 0
136 296 311 316 331 351 0
138 298 313 318 333 373 0
137 297 312 317 337 357 0
138 298 313 318 338 368 0
136 201 296 311 316 351 356 0
137 227 297 312 317 357 367 0
138 248 298 313 318 368 373 0
143 158 298 313 323 328 338 0
145 170 300 315 325 330 350 0
145 300 315 325 330 370 0
143 298 313 323 328 373 0
142 192 297 312 322 337 347 0
142 297 312 322 337 352 0
143 298 313 323 338 363 0
142 297 312 322 347 367 0
145 300 315 325 350 375 0
142 212 297 312 322 352 367 0
143 243 298 313 323 363 373 0
145 250 300 315 325 370 375 0
153 158 173 298 313 328 333 338 0
151 161 176 296 311 326 331 341 0
151 296 311 326 331 366 0
153 298 313 328 333 373 0
157 167 192 297 312 327 337 347 0
157 297 312 327 337 352 0
158 298 313 328 338 368 0
165 170 200 300 315 330 345 350 0
161 296 311 326 341 356 0
165 300 315 330 345 370 0
170 300 315 330 350 365 0
167 297 312 327 347 367 0
212 297 312 327 352 367 0
226 296 311 326 356 366 0
240 300 315 330 365 370 0
248 298 313 328 368 373 0
173 298 313 333 338 363 0
176 296 311 331 341 351 0
211 296 311 331 351 366 0
243 298 313 333 363 373 0
192 297 312 337 347 357 0
202 297 312 337 352 357 0
238 298 313 338 363 368 0
200 300 315 345 350 375 0
201 296 311 341 351 356 0
250 300 315 345 370 375 0
227 297 312 347 357 367 0
245 300 315 350 365 375 0
201 211 226 296 311 351 356 366 0
202 212 227 297 312 352 357 367 0
238 243 248 298 313 363 368 373 0
240 245 250 300 315 365 370 375 0
147 187 297 317 322 337 342 0
148 193 298 318 323 338 348 0
148 298 318 323 338 358 0
147 297 317 322 337 372 0
149 199 299 319 324 344 349 0
149 299 319 324 344 364 0
147 297 317 322 342 367 0
149 299 319 324 349 359 0
148 298 318 323 348 373 0
149 224 299 319 324 359 364 0
148 233 298 318 323 358 373 0
147 247 297 317 322 367 372 0
151 156 171 296 316 326 331 336 0
151 296 316 326 331 361 0
157 162 187 297 317 327 337 342 0
156 296 316 326 336 356 0
157 297 317 327 337 372 0
162 297 317 327 342 367 0
221 296 316 326 356 361 0
247 297 317 327 367 372 0
173 183 193 298 318 333 338 348 0
171 296 316 331 336 351 0
173 298 318 333 338 358 0
183 298 318 333 348 373 0
206 296 316 331 351 361 0
233 298 318 333 358 373 0
189 194 199 299 319 339 344 349 0
187 297 317 337 342 357 0
189 299 319 339 344 364 0
194 299 319 339 349 359 0
193 298 318 338 348 368 0
201 296 316 336 351 356 0
224 299 319 339 359 364 0
228 298 318 338 358 368 0
232 297 317 337 357 372 0
199 299 319 344 349 354 0
209 299 319 344 354 364 0
227 297 317 342 357 367 0
204 299 319 349 354 359 0
248 298 318 348 368 373 0
201 206 221 296 316 351 356 361 0
204 209 224 299 319 354 359 364 0
227 232 247 297 317 357 367 372 0
228 233 248 298 318 358 368 373 0
155 170 185 300 325 330 335 350 0
155 300 325 330 335 370 0
158 168 193 298 323 328 338 348 0
158 298 323 328 338 358 0
170 300 325 330 350 355 0
168 298 323 328 348 373 0
215 300 325 330 355 370 0
233 298 323 328 358 373 0
179 184 199 299 324 334 344 349 0
179 299 324 334 344 364 0
184 299 324 334 349 359 0
185 300 325 335 350 375 0
224 299 324 334 359 364 0
250 300 325 335 370 375 0
187 192 197 297 322 337 342 347 0
187 297 322 337 342 352 0
193 298 323 338 348 363 0
192 297 322 337 347 372 0
217 297 322 337 352 372 0
223 298 323 338 358 363 0
197 297 322 342 347 367 0
199 299 324 344 349 374 0
212 297 322 342 352 367 0
244 299 324 344 364 374 0
220 300 325 350 355 375 0
234 299 324 349 359 374 0
243 298 323 348 363 373 0
247 297 322 347 367 372 0
212 217 247 297 322 352 367 372 0
215 220 250 300 325 355 370 375 0
223 233 243 298 323 358 363 373 0
224 234 244 299 324 359 364 374 0
151 156 161 171 176 186 296 326 331 336 341 0
153 158 168 173 183 193 298 328 333 338 348 0
153 158 173 298 328 333 338 358 0
151 156 171 296 326 331 336 366 0
155 165 170 180 185 200 300 330 335 345 350 0
151 161 176 296 326 331 341 361 0
155 165 180 300 330 335 345 370 0
155 170 185 300 330 335 350 365 0
153 168 183 298 328 333 348 373 0
153 233 298 328 333 358 373 0
151 236 296 326 331 361 366 0
155 240 300 330 335 365 370 0
157 162 167 187 192 197 297 327 337 342 347 0
157 162 187 297 327 337 342 352 0
156 161 186 296 326 336 341 356 0
158 168 193 298 328 338 348 368 0
157 167 192 297 327 337 347 372 0
157 217 297 327 337 352 372 0
156 226 296 326 336 356 366 0
158 228 298 328 338 358 368 0
165 170 200 300 330 345 350 355 0
162 167 197 297 327 342 347 367 0
162 212 297 327 342 352 367 0
165 215 300 330 345 355 370 0
161 221 296 326 341 356 361 0
170 210 300 330 350 355 365 0
167 247 297 327 347 367 372 0
168 248 298 328 348 368 373 0
210 215 240 300 330 355 365 370 0
212 217 247 297 327 352 367 372 0
221 226 236 296 326 356 361 366 0
228 233 248 298 328 358 368 373 0
174 179 184 189 194 199 299 334 339 344 349 0
171 176 186 296 331 336 341 351 0
174 179 189 299 334 339 344 364 0
174 184 194 299 334 339 349 359 0
173 183 193 298 333 338 348 363 0
171 211 296 331 336 351 366 0
173 223 298 333 338 358 363 0
174 224 299 334 339 359 364 0
179 184 199 299 334 344 349 354 0
180 185 200 300 335 345 350 375 0
176 206 296 331 341 351 361 0
179 209 299 334 344 354 364 0
180 250 300 335 345 370 375 0
184 204 299 334 349 354 359 0
183 243 298 333 348 363 373 0
185 245 300 335 350 365 375 0
204 209 224 299 334 354 359 364 0
206 211 236 296 331 351 361 366 0
223 233 243 298 333 358 363 373 0
240 245 250 300 335 365 370 375 0
187 192 197 297 337 342 347 357 0
189 194 199 299 339 344 349 374 0
186 201 296 336 341 351 356 0
187 202 297 337 342 352 357 0
189 244 299 339 344 364 374 0
192 232 297 337 347 357 372 0
194 234 299 339 349 359 374 0
193 238 298 338 348 363 368 0
201 211 226 296 336 351 356 366 0
202 217 232 297 337 352 357 372 0
223 228 238 298 338 358 363 368 0
224 234 244 299 339 359 364 374 0
199 219 299 344 349 354 374 0
200 220 300 345 350 355 375 0
197 227 297 342 347 357 367 0
201 206 221 296 341 351 356 361 0
202 212 227 297 342 352 357 367 0
209 219 244 299 344 354 364 374 0
215 220 250 300 345 355 370 375 0
204 219 234 299 349 354 359 374 0
210 220 245 300 350 355 365 375 0
227 232 247 297 347 357 367 372 0
238 243 248 298 348 363 368 373 0
201 206 211 221 226 236 296 351 356 361 366 0
204 209 219 224 234 244 299 354 359 364 374 0
202 212 217 227 232 247 297 352 357 367 372 0
210 215 220 240 245 250 300 355 365 370 375 0
223 228 233 238 243 248 298 358 363 368 373 0
101 106 111 116 121 126 131 136 141 146 301 306 311 316 321 0
102 107 112 117 122 127 132 137 142 147 302 307 312 317 322 0
103 108 113 118 123 128 133 138 143 148 303 308 313 318 323 0
104 109 114 119 124 129 134 139 144 149 304 309 314 319 324 0
105 110 115 120 125 130 135 140 145 150 305 310 315 320 325 0
102 107 112 122 127 137 302 307 312 317 327 0
103 108 113 123 128 138 303 308 313 318 333 0
104 109 114 124 129 139 304 309 314 319 339 0
105 110 115 125 130 140 305 310 315 320 345 0
101 106 111 121 126 136 301 306 311 316 346 0
104 109 114 124 129 139 304 309 314 319 354 0
102 107 112 122 127 137 302 307 312 317 357 0
105 110 115 125 130 140 305 310 315 320 365 0
103 108 113 123 128 138 303 308 313 318 368 0
101 106 111 121 126 136 301 306 311 316 371 0
103 108 118 123 133 143 303 308 313 323 328 0
104 109 119 124 134 144 304 309 314 324 334 0
105 110 120 125 135 145 305 310 315 325 340 0
101 106 116 121 131 141 301 306 311 321 341 0
102 107 117 122 132 142 302 307 312 322 347 0
102 107 117 122 132 142 302 307 312 322 352 0
105 110 120 125 135 145 305 310 315 325 360 0
103 108 118 123 133 143 303 308 313 323 363 0
101 106 116 121 131 141 301 306 311 321 366 0
104 109 119 124 134 144 304 309 314 324 374 0
103 108 123 153 303 308 313 328 333 0
102 107 122 167 302 307 312 327 347 0
102 107 122 302 307 312 327 352 0
103 108 123 303 308 313 328 368 0
104 109 124 174 304 309 314 334 339 0
104 109 124 304 309 314 334 354 0
103 108 123 303 308 313 333 363 0
105 110 125 190 305 310 315 340 345 0
105 110 125 305 310 315 340 365 0
104 109 124 304 309 314 339 374 0
101 106 121 196 301 306 311 341 346 0
105 110 125 305 310 315 345 360 0
101 106 121 301 306 311 341 371 0
102 107 122 302 307 312 347 357 0
101 106 121 301 306 311 346 366 0
102 107 122 202 302 307 312 352 357 0
104 109 124 219 304 309 314 354 374 0
105 110 125 225 305 310 315 360 365 0
103 108 123 238 303 308 313 363 368 0
101 106 121 246 301 306 311 366 371 0
104 114 119 129 134 149 304 309 319 324 329 0
105 115 120 130 135 150 305 310 320 325 335 0
101 111 116 126 131 146 301 306 316 321 336 0
102 112 117 127 132 147 302 307 317 322 342 0
103 113 118 128 133 148 303 308 318 323 348 0
105 115 120 130 135 150 305 310 320 325 355 0
103 113 118 128 133 148 303 308 318 323 358 0
101 111 116 126 131 146 301 306 316 321 361 0
104 114 119 129 134 149 304 309 319 324 369 0
102 112 117 127 132 147 302 307 317 322 372 0
104 114 129 159 304 309 319 329 339 0
102 112 127 162 302 307 317 327 342 0
104 114 129 304 309 319 329 354 0
102 112 127 302 307 317 327 372 0
105 115 130 180 305 310 320 335 345 0
103 113 128 183 303 308 318 333 348 0
103 113 128 303 308 318 333 358 0
105 115 130 305 310 320 335 365 0
101 111 126 191 301 306 316 336 346 0
104 114 129 304 309 319 339 369 0
101 111 126 301 306 316 336 371 0
105 115 130 305 310 320 345 355 0
102 112 127 302 307 317 342 357 0
101 111 126 301 306 316 346 361 0
103 113 128 303 308 318 348 368 0
105 115 130 210 305 310 320 355 365 0
104 114 129 214 304 309 319 354 369 0
103 113 128 228 303 308 318 358 368 0
102 112 127 232 302 307 317 357 372 0
101 111 126 241 301 306 316 361 371 0
104 119 134 154 304 309 324 329 334 0
103 118 133 168 303 308 323 328 348 0
103 118 133 303 308 323 328 358 0
104 119 134 304 309 324 329 374 0
105 120 135 175 305 310 325 335 340 0
105 120 135 305 310 325 335 360 0
104 119 134 304 309 324 334 369 0
101 116 131 186 301 306 321 336 341 0
105 120 135 305 310 325 340 355 0
101 116 131 301 306 321 336 366 0
102 117 132 197 302 307 322 342 347 0
102 117 132 302 307 322 342 352 0
101 116 131 301 306 321 341 361 0
103 118 133 303 308 323 348 363 0
102 117 132 302 307 322 347 372 0
105 120 135 205 305 310 325 355 360 0
102 117 132 217 302 307 322 352 372 0
103 118 133 223 303 308 323 358 363 0
101 116 131 236 301 306 321 361 366 0
104 119 134 249 304 309 324 369 374 0
104 154 159 174 304 309 329 334 339 0
103 153 168 183 303 308 328 333 348 0
104 154 304 309 329 334 354 0
103 153 303 308 328 333 358 0
104 159 304 309 329 339 374 0
102 162 167 197 302 307 327 342 347 0
102 162 302 307 327 342 352 0
103 168 303 308 328 348 368 0
102 167 302 307 327 347 372 0
102 217 302 307 327 352 372 0
104 219 304 309 329 354 374 0
103 228 303 308 328 358 368 0
105 175 180 190 305 310 335 340 345 0
105 175 305 310 335 340 365 0
104 174 304 309 334 339 369 0
105 180 305 310 335 345 360 0
103 183 303 308 333 348 363 0
104 214 304 309 334 354 369 0
103 223 303 308 333 358 363 0
105 225 305 310 335 360 365 0
101 186 191 196 301 306 336 341 346 0
105 190 305 310 340 345 355 0
101 186 301 306 336 341 371 0
101 191 301 306 336 346 366 0
105 210 305 310 340 355 365 0
101 246 301 306 336 366 371 0
104 249 304 309 339 369 374 0
102 197 302 307 342 347 357 0
101 196 301 306 341 346 361 0
102 202 302 307 342 352 357 0
105 205 305 310 345 355 360 0
101 241 301 306 341 361 371 0
102 232 302 307 347 357 372 0
101 236 301 306 346 361 366 0
103 238 303 308 348 363 368 0
105 205 210 225 305 310 355 360 365 0
102 202 217 232 302 307 352 357 372 0
104 214 219 249 304 309 354 369 374 0
103 223 228 238 303 308 358 363 368 0
101 236 241 246 301 306 361 366 371 0
110 115 120 140 145 150 305 315 320 325 330 0
106 111 116 136 141 146 301 311 316 321 331 0
107 112 117 137 142 147 302 312 317 322 337 0
108 113 118 138 143 148 303 313 318 323 343 0
109 114 119 139 144 149 304 314 319 324 349 0
108 113 118 138 143 148 303 313 318 323 353 0
106 111 116 136 141 146 301 311 316 321 356 0
109 114 119 139 144 149 304 314 319 324 364 0
107 112 117 137 142 147 302 312 317 322 367 0
110 115 120 140 145 150 305 315 320 325 375 0
107 112 137 157 302 312 317 327 337 0
110 115 140 165 305 315 320 330 345 0
110 115 140 305 315 320 330 365 0
107 112 137 302 312 317 327 367 0
108 113 138 178 303 313 318 333 343 0
106 111 136 181 301 311 316 331 346 0
108 113 138 303 313 318 333 353 0
106 111 136 301 311 316 331 371 0
109 114 139 194 304 314 319 339 349 0
107 112 137 302 312 317 337 357 0
109 114 139 304 314 319 339 364 0
108 113 138 303 313 318 343 368 0
110 115 140 305 315 320 345 375 0
109 114 139 304 314 319 349 354 0
106 111 136 301 311 316 346 356 0
109 114 139 209 304 314 319 354 364 0
108 113 138 213 303 313 318 353 368 0
107 112 137 227 302 312 317 357 367 0
106 111 136 231 301 311 316 356 371 0
110 115 140 245 305 315 320 365 375 0
110 120 145 160 305 315 325 330 340 0
108 118 143 163 303 313 323 328 343 0
108 118 143 303 313 323 328 353 0
110 120 145 305 315 325 330 360 0
106 116 141 176 301 311 321 331 341 0
109 119 144 184 304 314 324 334 349 0
109 119 144 304 314 324 334 364 0
106 116 141 301 311 321 331 366 0
107 117 142 192 302 312 322 337 347 0
107 117 142 302 312 322 337 352 0
110 120 145 305 315 325 340 375 0
106 116 141 301 311 321 341 356 0
108 118 143 303 313 323 343 363 0
107 117 142 302 312 322 347 367 0
109 119 144 304 314 324 349 374 0
108 118 143 208 303 313 323 353 363 0
107 117 142 212 302 312 322 352 367 0
106 116 141 226 301 311 321 356 366 0
110 120 145 235 305 315 325 360 375 0
109 119 144 244 304 314 324 364 374 0
108 153 163 178 303 313 328 333 343 0
108 153 303 313 328 333 353 0
110 160 165 190 305 315 330 340 345 0
107 157 167 192 302 312 327 337 347 0
107 157 302 312 327 337 352 0
110 160 305 315 330 340 365 0
110 165 305 315 330 345 360 0
108 163 303 313 328 343 368 0
107 167 302 312 327 347 367 0
107 212 302 312 327 352 367 0
108 213 303 313 328 353 368 0
110 225 305 315 330 360 365 0
109 174 184 194 304 314 334 339 349 0
109 174 304 314 334 339 364 0
106 176 181 196 301 311 331 341 346 0
108 178 303 313 333 343 363 0
106 176 301 311 331 341 371 0
109 184 304 314 334 349 354 0
106 181 301 311 331 346 366 0
108 208 303 313 333 353 363 0
109 209 304 314 334 354 364 0
106 246 301 311 331 366 371 0
110 190 305 315 340 345 375 0
107 192 302 312 337 347 357 0
109 194 304 314 339 349 374 0
107 202 302 312 337 352 357 0
109 244 304 314 339 364 374 0
110 245 305 315 340 365 375 0
106 196 301 311 341 346 356 0
106 231 301 311 341 356 371 0
110 235 305 315 345 360 375 0
108 238 303 313 343 363 368 0
109 219 304 314 349 354 374 0
106 226 301 311 346 356 366 0
107 227 302 312 347 357 367 0
107 202 212 227 302 312 352 357 367 0
108 208 213 238 303 313 353 363 368 0
109 209 219 244 304 314 354 364 374 0
110 225 235 245 305 315 360 365 375 0
106 226 231 246 301 311 356 366 371 0
115 120 150 155 305 320 325 330 335 0
114 119 149 169 304 319 324 329 349 0
115 120 150 305 320 325 330 355 0
114 119 149 304 319 324 329 364 0
111 116 146 171 301 316 321 331 336 0
111 116 146 301 316 321 331 361 0
115 120 150 305 320 325 335 375 0
112 117 147 187 302 317 322 337 342 0
111 116 146 301 316 321 336 356 0
112 117 147 302 317 322 337 372 0
113 118 148 198 303 318 323 343 348 0
113 118 148 303 318 323 343 358 0
112 117 147 302 317 322 342 367 0
113 118 148 303 318 323 348 353 0
114 119 149 304 319 324 349 369 0
113 118 148 203 303 318 323 353 358 0
115 120 150 220 305 320 325 355 375 0
111 116 146 221 301 316 321 356 361 0
114 119 149 239 304 319 324 364 369 0
112 117 147 247 302 317 322 367 372 0
115 155 165 180 305 320 330 335 345 0
115 155 305 320 330 335 365 0
112 157 162 187 302 317 327 337 342 0
114 159 169 194 304 319 329 339 349 0
114 159 304 319 329 339 364 0
112 157 302 317 327 337 372 0
115 165 305 320 330 345 355 0
112 162 302 317 327 342 367 0
114 169 304 319 329 349 354 0
114 209 304 319 329 354 364 0
115 210 305 320 330 355 365 0
112 247 302 317 327 367 372 0
111 171 181 191 301 316 331 336 346 0
111 171 301 316 331 336 371 0
113 178 183 198 303 318 333 343 348 0
113 178 303 318 333 343 358 0
115 180 305 320 335 345 375 0
113 183 303 318 333 348 353 0
111 181 301 316 331 346 361 0
113 203 303 318 333 353 358 0
111 241 301 316 331 361 371 0
115 245 305 320 335 365 375 0
112 187 302 317 337 342 357 0
111 191 301 316 336 346 356 0
114 194 304 319 339 349 369 0
111 231 301 316 336 356 371 0
112 232 302 317 337 357 372 0
114 239 304 319 339 364 369 0
113 198 303 318 343 348 368 0
115 220 305 320 345 355 375 0
112 227 302 317 342 357 367 0
113 228 303 318 343 358 368 0
113 213 303 318 348 353 368 0
114 214 304 319 349 354 369 0
111 221 301 316 346 356 361 0
113 203 213 228 303 318 353 358 368 0
114 209 214 239 304 319 354 364 369 0
115 210 220 245 305 320 355 365 375 0
111 221 231 241 301 316 356 361 371 0
112 227 232 247 302 317 357 367 372 0
120 155 160 175 305 325 330 335 340 0
119 154 169 184 304 324 329 334 349 0
120 155 305 325 330 335 360 0
119 154 304 324 329 334 364 0
120 160 305 325 330 340 355 0
118 163 168 198 303 323 328 343 348 0
118 163 303 323 328 343 358 0
118 168 303 323 328 348 353 0
119 169 304 324 329 349 374 0
118 203 303 323 328 353 358 0
120 205 305 325 330 355 360 0
119 244 304 324 329 364 374 0
116 171 176 186 301 321 331 336 341 0
116 171 301 321 331 336 366 0
120 175 305 325 335 340 375 0
116 176 301 321 331 341 361 0
119 184 304 324 334 349 369 0
120 235 305 325 335 360 375 0
116 236 301 321 331 361 366 0
119 239 304 324 334 364 369 0
117 187 192 197 302 322 337 342 347 0
117 187 302 322 337 342 352 0
116 186 301 321 336 341 356 0
117 192 302 322 337 347 372 0
117 217 302 322 337 352 372 0
120 220 305 325 340 355 375 0
116 226 301 321 336 356 366 0
118 198 303 323 343 348 363 0
117 197 302 322 342 347 367 0
117 212 302 322 342 352 367 0
116 221 301 321 341 356 361 0
118 223 303 323 343 358 363 0
118 208 303 323 348 353 363 0
117 247 302 322 347 367 372 0
119 249 304 324 349 369 374 0
118 203 208 223 303 323 353 358 363 0
120 205 220 235 305 325 355 360 375 0
117 212 217 247 302 322 352 367 372 0
116 221 226 236 301 321 356 361 366 0
119 239 244 249 304 324 364 369 374 0
155 160 165 175 180 190 305 330 335 340 345 0
154 159 169 174 184 194 304 329 334 339 349 0
154 159 174 304 329 334 339 364 0
155 160 175 305 330 335 340 365 0
153 163 168 178 183 198 303 328 333 343 348 0
153 163 178 303 328 333 343 358 0
155 165 180 305 330 335 345 360 0
153 168 183 303 328 333 348 353 0
154 169 184 304 329 334 349 354 0
153 203 303 328 333 353 358 0
154 209 304 329 334 354 364 0
155 225 305 330 335 360 365 0
157 162 167 187 192 197 302 327 337 342 347 0
157 162 187 302 327 337 342 352 0
160 165 190 305 330 340 345 355 0
157 167 192 302 327 337 347 372 0
159 169 194 304 329 339 349 374 0
160 210 305 330 340 355 365 0
157 217 302 327 337 352 372 0
159 244 304 329 339 364 374 0
162 167 197 302 327 342 347 367 0
163 168 198 303 328 343 348 368 0
165 205 305 330 345 355 360 0
162 212 302 327 342 352 367 0
163 228 303 328 343 358 368 0
168 213 303 328 348 353 368 0
169 219 304 329 349 354 374 0
167 247 302 327 347 367 372 0
205 210 225 305 330 355 360 365 0
203 213 228 303 328 353 358 368 0
209 219 244 304 329 354 364 374 0
212 217 247 302 327 352 367 372 0
171 176 181 186 191 196 301 331 336 341 346 0
171 176 186 301 331 336 341 371 0
175 180 190 305 335 340 345 375 0
171 181 191 301 331 336 346 366 0
174 184 194 304 334 339 349 369 0
174 239 304 334 339 364 369 0
175 245 305 335 340 365 375 0
171 246 301 331 336 366 371 0
176 181 196 301 331 341 346 361 0
178 183 198 303 333 343 348 363 0
178 223 303 333 343 358 363 0
180 235 305 335 345 360 375 0
176 241 301 331 341 361 371 0
183 208 303 333 348 353 363 0
184 214 304 334 349 354 369 0
181 236 301 331 346 361 366 0
203 208 223 303 333 353 358 363 0
209 214 239 304 334 354 364 369 0
225 235 245 305 335 360 365 375 0
236 241 246 301 331 361 366 371 0
186 191 196 301 336 341 346 356 0
187 192 197 302 337 342 347 357 0
187 202 302 337 342 352 357 0
190 220 305 340 345 355 375 0
186 231 301 336 341 356 371 0
191 226 301 336 346 356 366 0
192 232 302 337 347 357 372 0
194 249 304 339 349 369 374 0
202 217 232 302 337 352 357 372 0
210 220 245 305 340 355 365 375 0
226 231 246 301 336 356 366 371 0
239 244 249 304 339 364 369 374 0
196 221 301 341 346 356 361 0
197 227 302 342 347 357 367 0
198 238 303 343 348 363 368 0
202 212 227 302 342 352 357 367 0
205 220 235 305 345 355 360 375 0
223 228 238 303 343 358 363 368 0
221 231 241 301 341 356 361 371 0
208 213 238 303 348 353 363 368 0
214 219 249 304 349 354 369 374 0
221 226 236 301 346 356 361 366 0
227 232 247 302 347 357 367 372 0
203 208 213 223 228 238 303 353 358 363 368 0
205 210 220 225 235 245 305 355 360 365 375 0
202 212 217 227 232 247 302 352 357 367 372 0
209 214 219 239 244 249 304 354 364 369 374 0
221 226 231 236 241 246 301 356 361 366 371 0
121 126 131 136 141 146 306 311 316 321 326 0
122 127 132 137 142 147 307 312 317 322 332 0
123 128 133 138 143 148 308 313 318 323 338 0
124 129 134 139 144 149 309 314 319 324 344 0
125 130 135 140 145 150 310 315 320 325 350 0
121 126 131 136 141 146 306 311 316 321 351 0
124 129 134 139 144 149 309 314 319 324 359 0
122 127 132 137 142 147 307 312 317 322 362 0
125 130 135 140 145 150 310 315 320 325 370 0
123 128 133 138 143 148 308 313 318 323 373 0
122 127 137 152 307 312 317 327 332 0
121 126 136 166 306 311 316 326 346 0
122 127 137 307 312 317 327 362 0
121 126 136 306 311 316 326 371 0
123 128 138 173 308 313 318 333 338 0
122 127 137 307 312 317 332 357 0
123 128 138 308 313 318 333 373 0
124 129 139 189 309 314 319 339 344 0
124 129 139 309 314 319 339 359 0
123 128 138 308 313 318 338 368 0
125 130 140 200 310 315 320 345 350 0
124 129 139 309 314 319 344 354 0
125 130 140 310 315 320 345 370 0
121 126 136 306 311 316 346 351 0
125 130 140 310 315 320 350 365 0
124 129 139 204 309 314 319 354 359 0
121 126 136 216 306 311 316 351 371 0
122 127 137 222 307 312 317 357 362 0
125 130 140 240 310 315 320 365 370 0
123 128 138 248 308 313 318 368 373 0
123 133 143 158 308 313 323 328 338 0
121 131 141 161 306 311 321 326 341 0
121 131 141 306 311 321 326 366 0
123 133 143 308 313 323 328 373 0
124 134 144 179 309 314 324 334 344 0
122 132 142 182 307 312 322 332 347 0
122 132 142 307 312 322 332 352 0
124 134 144 309 314 324 334 359 0
125 135 145 195 310 315 325 340 350 0
123 133 143 308 313 323 338 363 0
125 135 145 310 315 325 340 370 0
121 131 141 306 311 321 341 351 0
124 134 144 309 314 324 344 374 0
125 135 145 310 315 325 350 360 0
122 132 142 307 312 322 347 362 0
122 132 142 207 307 312 322 352 362 0
121 131 141 211 306 311 321 351 366 0
125 135 145 230 310 315 325 360 370 0
124 134 144 234 309 314 324 359 374 0
123 133 143 243 308 313 323 363 373 0
123 153 158 173 308 313 328 333 338 0
122 152 167 182 307 312 327 332 347 0
122 152 307 312 327 332 352 0
123 153 308 313 328 333 373 0
123 158 308 313 328 338 368 0
121 161 166 196 306 311 326 341 346 0
121 161 306 311 326 341 371 0
122 167 307 312 327 347 362 0
121 166 306 311 326 346 366 0
122 207 307 312 327 352 362 0
121 246 306 311 326 366 371 0
123 248 308 313 328 368 373 0
124 174 179 189 309 314 334 339 344 0
124 174 309 314 334 339 359 0
123 173 308 313 333 338 363 0
124 179 309 314 334 344 354 0
122 182 307 312 332 347 357 0
122 202 307 312 332 352 357 0
124 204 309 314 334 354 359 0
123 243 308 313 333 363 373 0
125 190 195 200 310 315 340 345 350 0
125 190 310 315 340 345 370 0
124 189 309 314 339 344 374 0
125 195 310 315 340 350 365 0
124 234 309 314 339 359 374 0
123 238 308 313 338 363 368 0
125 240 310 315 340 365 370 0
121 196 306 311 341 346 351 0
125 200 310 315 345 350 360 0
121 216 306 311 341 351 371 0
124 219 309 314 344 354 374 0
125 230 310 315 345 360 370 0
121 211 306 311 346 351 366 0
122 222 307 312 347 357 362 0
125 225 310 315 350 360 365 0
122 202 207 222 307 312 352 357 362 0
124 204 219 234 309 314 354 359 374 0
121 211 216 246 306 311 351 366 371 0
125 225 230 240 310 315 360 365 370 0
123 238 243 248 308 313 363 368 373 0
126 131 146 156 306 316 321 326 336 0
129 134 149 164 309 319 324 329 344 0
129 134 149 309 319 324 329 359 0
126 131 146 306 316 321 326 361 0
127 132 147 177 307 317 322 332 342 0
130 135 150 185 310 320 325 335 350 0
130 135 150 310 320 325 335 370 0
127 132 147 307 317 322 332 372 0
128 133 148 193 308 318 323 338 348 0
126 131 146 306 316 321 336 351 0
128 133 148 308 318 323 338 358 0
127 132 147 307 317 322 342 362 0
129 134 149 309 319 324 344 369 0
130 135 150 310 320 325 350 355 0
128 133 148 308 318 323 348 373 0
126 131 146 206 306 316 321 351 361 0
130 135 150 215 310 320 325 355 370 0
129 134 149 229 309 319 324 359 369 0
128 133 148 233 308 318 323 358 373 0
127 132 147 242 307 317 322 362 372 0
127 152 162 177 307 317 327 332 342 0
127 152 307 317 327 332 372 0
129 159 164 189 309 319 329 339 344 0
126 156 166 191 306 316 326 336 346 0
129 159 309 319 329 339 359 0
126 156 306 316 326 336 371 0
129 164 309 319 329 344 354 0
127 162 307 317 327 342 362 0
126 166 306 316 326 346 361 0
129 204 309 319 329 354 359 0
126 241 306 316 326 361 371 0
127 242 307 317 327 362 372 0
128 173 183 193 308 318 333 338 348 0
128 173 308 318 333 338 358 0
130 180 185 200 310 320 335 345 350 0
127 177 307 317 332 342 357 0
130 180 310 320 335 345 370 0
130 185 310 320 335 350 365 0
128 183 308 318 333 348 373 0
127 232 307 317 332 357 372 0
128 233 308 318 333 358 373 0
130 240 310 320 335 365 370 0
129 189 309 319 339 344 369 0
126 191 306 316 336 346 351 0
128 193 308 318 338 348 368 0
126 216 306 316 336 351 371 0
128 228 308 318 338 358 368 0
129 229 309 319 339 359 369 0
130 200 310 320 345 350 355 0
129 214 309 319 344 354 369 0
130 215 310 320 345 355 370 0
127 222 307 317 342 357 362 0
126 206 306 316 346 351 361 0
130 210 310 320 350 355 365 0
128 248 308 318 348 368 373 0
129 204 214 229 309 319 354 359 369 0
130 210 215 240 310 320 355 365 370 0
126 206 216 241 306 316 351 361 371 0
127 222 232 242 307 317 357 362 372 0
128 228 233 248 308 318 358 368 373 0
134 154 164 179 309 324 329 334 344 0
134 154 309 324 329 334 359 0
131 156 161 186 306 321 326 336 341 0
133 158 168 193 308 323 328 338 348 0
133 158 308 323 328 338 358 0
131 156 306 321 326 336 366 0
131 161 306 321 326 341 361 0
134 164 309 324 329 344 374 0
133 168 308 323 328 348 373 0
133 233 308 323 328 358 373 0
134 234 309 324 329 359 374 0
131 236 306 321 326 361 366 0
135 175 185 195 310 325 335 340 350 0
135 175 310 325 335 340 370 0
132 177 182 197 307 322 332 342 347 0
132 177 307 322 332 342 352 0
134 179 309 324 334 344 369 0
135 185 310 325 335 350 360 0
132 182 307 322 332 347 372 0
132 217 307 322 332 352 372 0
134 229 309 324 334 359 369 0
135 230 310 325 335 360 370 0
131 186 306 321 336 341 351 0
135 195 310 325 340 350 355 0
133 193 308 323 338 348 363 0
131 211 306 321 336 351 366 0
135 215 310 325 340 355 370 0
133 223 308 323 338 358 363 0
132 197 307 322 342 347 362 0
131 206 306 321 341 351 361 0
132 207 307 322 342 352 362 0
134 249 309 324 344 369 374 0
135 205 310 325 350 355 360 0
132 242 307 322 347 362 372 0
133 243 308 323 348 363 373 0
135 205 215 230 310 325 355 360 370 0
131 206 211 236 306 321 351 361 366 0
132 207 217 242 307 322 352 362 372 0
133 223 233 243 308 323 358 363 373 0
134 229 234 249 309 324 359 369 374 0
154 159 164 174 179 189 309 329 334 339 344 0
153 158 168 173 183 193 308 328 333 338 348 0
153 158 173 308 328 333 338 358 0
154 159 174 309 329 334 339 359 0
152 162 167 177 182 197 307 327 332 342 347 0
152 162 177 307 327 332 342 352 0
154 164 179 309 329 334 344 354 0
152 167 182 307 327 332 347 372 0
153 168 183 308 328 333 348 373 0
154 204 309 329 334 354 359 0
152 217 307 327 332 352 372 0
153 233 308 328 333 358 373 0
156 161 166 186 191 196 306 326 336 341 346 0
156 161 186 306 326 336 341 371 0
159 164 189 309 329 339 344 374 0
156 166 191 306 326 336 346 366 0
158 168 193 308 328 338 348 368 0
158 228 308 328 338 358 368 0
159 234 309 329 339 359 374 0
156 246 306 326 336 366 371 0
161 166 196 306 326 341 346 361 0
162 167 197 307 327 342 347 362 0
162 207 307 327 342 352 362 0
164 219 309 329 344 354 374 0
161 241 306 326 341 361 371 0
166 236 306 326 346 361 366 0
167 242 307 327 347 362 372 0
168 248 308 328 348 368 373 0
204 219 234 309 329 354 359 374 0
207 217 242 307 327 352 362 372 0
228 233 248 308 328 358 368 373 0
236 241 246 306 326 361 366 371 0
175 180 185 190 195 200 310 335 340 345 350 0
174 179 189 309 334 339 344 369 0
175 180 190 310 335 340 345 370 0
173 183 193 308 333 338 348 363 0
175 185 195 310 335 340 350 365 0
173 223 308 333 338 358 363 0
174 229 309 334 339 359 369 0
175 240 310 335 340 365 370 0
177 182 197 307 332 342 347 357 0
180 185 200 310 335 345 350 360 0
177 202 307 332 342 352 357 0
179 214 309 334 344 354 369 0
180 230 310 335 345 360 370 0
185 225 310 335 350 360 365 0
182 232 307 332 347 357 372 0
183 243 308 333 348 363 373 0
204 214 229 309 334 354 359 369 0
202 217 232 307 332 352 357 372 0
225 230 240 310 335 360 365 370 0
223 233 243 308 333 358 363 373 0
186 191 196 306 336 341 346 351 0
190 195 200 310 340 345 350 355 0
190 215 310 340 345 355 370 0
186 216 306 336 341 351 371 0
189 249 309 339 344 369 374 0
195 210 310 340 350 355 365 0
191 211 306 336 346 351 366 0
193 238 308 338 348 363 368 0
210 215 240 310 340 355 365 370 0
211 216 246 306 336 351 366 371 0
223 228 238 308 338 358 363 368 0
229 234 249 309 339 359 369 374 0
200 205 310 345 350 355 360 0
196 206 306 341 346 351 361 0
197 222 307 342 347 357 362 0
202 207 222 307 342 352 357 362 0
205 215 230 310 345 355 360 370 0
206 216 241 306 341 351 361 371 0
214 219 249 309 344 354 369 374 0
205 210 225 310 350 355 360 365 0
206 211 236 306 346 351 361 366 0
222 232 242 307 347 357 362 372 0
238 243 248 308 348 363 368 373 0
205 210 215 225 230 240 310 355 360 365 370 0
202 207 217 222 232 242 307 352 357 362 372 0
204 214 219 229 234 249 309 354 359 369 374 0
206 211 216 236 241 246 306 351 361 366 371 0
223 228 233 238 243 248 308 358 363 368 373 0
136 141 146 151 311 316 321 326 331 0
140 145 150 170 315 320 325 330 350 0
136 141 146 311 316 321 326 356 0
140 145 150 315 320 325 330 370 0
137 142 147 172 312 317 322 332 337 0
136 141 146 311 316 321 331 351 0
137 142 147 312 317 322 332 367 0
138 143 148 188 313 318 323 338 343 0
138 143 148 313 318 323 338 353 0
137 142 147 312 317 322 337 362 0
139 144 149 199 314 319 324 344 349 0
139 144 149 314 319 324 344 364 0
138 143 148 313 318 323 343 373 0
139 144 149 314 319 324 349 359 0
140 145 150 315 320 325 350 375 0
136 141 146 201 311 316 321 351 356 0
138 143 148 218 313 318 323 353 373 0
139 144 149 224 314 319 324 359 364 0
137 142 147 237 312 317 322 362 367 0
140 145 150 250 315 320 325 370 375 0
137 152 157 172 312 317 327 332 337 0
136 151 166 181 311 316 326 331 346 0
137 152 312 317 327 332 367 0
136 151 311 316 326 331 371 0
137 157 312 317 327 337 362 0
140 165 170 200 315 320 330 345 350 0
140 165 315 320 330 345 370 0
136 166 311 316 326 346 356 0
140 170 315 320 330 350 365 0
136 231 311 316 326 356 371 0
137 237 312 317 327 362 367 0
140 240 315 320 330 365 370 0
138 173 178 188 313 318 333 338 343 0
138 173 313 318 333 338 353 0
137 172 312 317 332 337 357 0
138 178 313 318 333 343 373 0
136 181 311 316 331 346 351 0
136 216 311 316 331 351 371 0
138 218 313 318 333 353 373 0
137 227 312 317 332 357 367 0
139 189 194 199 314 319 339 344 349 0
139 189 314 319 339 344 364 0
138 188 313 318 338 343 368 0
139 194 314 319 339 349 359 0
138 213 313 318 338 353 368 0
137 222 312 317 337 357 362 0
139 224 314 319 339 359 364 0
139 199 314 319 344 349 354 0
140 200 315 320 345 350 375 0
139 209 314 319 344 354 364 0
138 248 313 318 343 368 373 0
140 250 315 320 345 370 375 0
136 201 311 316 346 351 356 0
139 204 314 319 349 354 359 0
140 245 315 320 350 365 375 0
139 204 209 224 314 319 354 359 364 0
136 201 216 231 311 316 351 356 371 0
138 213 218 248 313 318 353 368 373 0
137 222 227 237 312 317 357 362 367 0
140 240 245 250 315 320 365 370 375 0
141 151 161 176 311 321 326 331 341 0
141 151 311 321 326 331 366 0
143 158 163 188 313 323 328 338 343 0
145 160 170 195 315 325 330 340 350 0
143 158 313 323 328 338 353 0
145 160 315 325 330 340 370 0
141 161 311 321 326 341 356 0
143 163 313 323 328 343 373 0
145 170 315 325 330 350 360 0
143 218 313 323 328 353 373 0
141 226 311 321 326 356 366 0
145 230 315 325 330 360 370 0
142 172 182 192 312 322 332 337 347 0
142 172 312 322 332 337 352 0
144 179 184 199 314 324 334 344 349 0
141 176 311 321 331 341 351 0
144 179 314 324 334 344 364 0
144 184 314 324 334 349 359 0
142 182 312 322 332 347 367 0
141 211 311 321 331 351 366 0
142 212 312 322 332 352 367 0
144 224 314 324 334 359 364 0
143 188 313 323 338 343 363 0
142 192 312 322 337 347 362 0
145 195 315 325 340 350 375 0
142 207 312 322 337 352 362 0
143 208 313 323 338 353 363 0
145 250 315 325 340 370 375 0
144 199 314 324 344 349 374 0
141 201 311 321 341 351 356 0
143 243 313 323 343 363 373 0
144 244 314 324 344 364 374 0
144 234 314 324 349 359 374 0
145 235 315 325 350 360 375 0
142 237 312 322 347 362 367 0
141 201 211 226 311 321 351 356 366 0
142 207 212 237 312 322 352 362 367 0
143 208 218 243 313 323 353 363 373 0
144 224 234 244 314 324 359 364 374 0
145 230 235 250 315 325 360 370 375 0
153 158 163 173 178 188 313 328 333 338 343 0
152 157 167 172 182 192 312 327 332 337 347 0
152 157 172 312 327 332 337 352 0
153 158 173 313 328 333 338 353 0
151 161 166 176 181 196 311 326 331 341 346 0
151 161 176 311 326 331 341 371 0
153 163 178 313 328 333 343 373 0
151 166 181 311 326 331 346 366 0
152 167 182 312 327 332 347 367 0
152 212 312 327 332 352 367 0
153 218 313 328 333 353 373 0
151 246 311 326 331 366 371 0
160 165 170 190 195 200 315 330 340 345 350 0
158 163 188 313 328 338 343 368 0
160 165 190 315 330 340 345 370 0
157 167 192 312 327 337 347 362 0
160 170 195 315 330 340 350 365 0
157 207 312 327 337 352 362 0
158 213 313 328 338 353 368 0
160 240 315 330 340 365 370 0
161 166 196 311 326 341 346 356 0
165 170 200 315 330 345 350 360 0
165 230 315 330 345 360 370 0
161 231 311 326 341 356 371 0
163 248 313 328 343 368 373 0
170 225 315 330 350 360 365 0
166 226 311 326 346 356 366 0
167 237 312 327 347 362 367 0
207 212 237 312 327 352 362 367 0
213 218 248 313 328 353 368 373 0
225 230 240 315 330 360 365 370 0
226 231 246 311 326 356 366 371 0
174 179 184 189 194 199 314 334 339 344 349 0
173 178 188 313 333 338 343 363 0
174 179 189 314 334 339 344 364 0
172 182 192 312 332 337 347 357 0
174 184 194 314 334 339 349 359 0
172 202 312 332 337 352 357 0
173 208 313 333 338 353 363 0
174 224 314 334 339 359 364 0
176 181 196 311 331 341 346 351 0
179 184 199 314 334 344 349 354 0
179 209 314 334 344 354 364 0
176 216 311 331 341 351 371 0
178 243 313 333 343 363 373 0
184 204 314 334 349 354 359 0
181 211 311 331 346 351 366 0
182 227 312 332 347 357 367 0
204 209 224 314 334 354 359 364 0
202 212 227 312 332 352 357 367 0
208 218 243 313 333 353 363 373 0
211 216 246 311 331 351 366 371 0
189 194 199 314 339 344 349 374 0
190 195 200 315 340 345 350 375 0
188 238 313 338 343 363 368 0
189 244 314 339 344 364 374 0
190 250 315 340 345 370 375 0
192 222 312 337 347 357 362 0
194 234 314 339 349 359 374 0
195 245 315 340 350 365 375 0
202 207 222 312 337 352 357 362 0
208 213 238 313 338 353 363 368 0
224 234 244 314 339 359 364 374 0
240 245 250 315 340 365 370 375 0
196 201 311 341 346 351 356 0
199 219 314 344 349 354 374 0
200 235 315 345 350 360 375 0
201 216 231 311 341 351 356 371 0
209 219 244 314 344 354 364 374 0
230 235 250 315 345 360 370 375 0
238 243 248 313 343 363 368 373 0
201 211 226 311 346 351 356 366 0
204 219 234 314 349 354 359 374 0
222 227 237 312 347 357 362 367 0
225 235 245 315 350 360 365 375 0
202 207 212 222 227 237 312 352 357 362 367 0
204 209 219 224 234 244 314 354 359 364 374 0
201 211 216 226 231 246 311 351 356 366 371 0
208 213 218 238 243 248 313 353 363 368 373 0
225 230 235 240 245 250 315 360 365 370 375 0
146 151 156 171 316 321 326 331 336 0
150 155 170 185 320 325 330 335 350 0
146 151 316 321 326 331 361 0
150 155 320 325 330 335 370 0
146 156 316 321 326 336 356 0
149 164 169 199 319 324 329 344 349 0
149 164 319 324 329 344 364 0
150 170 320 325 330 350 355 0
149 169 319 324 329 349 359 0
150 215 320 325 330 355 370 0
146 221 316 321 326 356 361 0
149 224 319 324 329 359 364 0
147 172 177 187 317 322 332 337 342 0
146 171 316 321 331 336 351 0
147 172 317 322 332 337 372 0
147 177 317 322 332 342 367 0
150 185 320 325 335 350 375 0
146 206 316 321 331 351 361 0
147 247 317 322 332 367 372 0
150 250 320 325 335 370 375 0
148 188 193 198 318 323 338 343 348 0
148 188 318 323 338 343 358 0
147 187 317 322 337 342 362 0
148 193 318 323 338 348 353 0
146 201 316 321 336 351 356 0
148 203 318 323 338 353 358 0
147 242 317 322 337 362 372 0
149 199 319 324 344 349 369 0
148 198 318 323 343 348 373 0
148 233 318 323 343 358 373 0
147 237 317 322 342 362 367 0
149 239 319 324 344 364 369 0
148 218 318 323 348 353 373 0
150 220 320 325 350 355 375 0
149 229 319 324 349 359 369 0
146 201 206 221 316 321 351 356 361 0
148 203 218 233 318 323 353 358 373 0
150 215 220 250 320 325 355 370 375 0
149 224 229 239 319 324 359 364 369 0
147 237 242 247 317 322 362 367 372 0
152 157 162 172 177 187 317 327 332 337 342 0
151 156 166 171 181 191 316 326 331 336 346 0
151 156 171 316 326 331 336 371 0
152 157 172 317 327 332 337 372 0
155 165 170 180 185 200 320 330 335 345 350 0
152 162 177 317 327 332 342 367 0
155 165 180 320 330 335 345 370 0
151 166 181 316 326 331 346 361 0
155 170 185 320 330 335 350 365 0
155 240 320 330 335 365 370 0
151 241 316 326 331 361 371 0
152 247 317 327 332 367 372 0
159 164 169 189 194 199 319 329 339 344 349 0
157 162 187 317 327 337 342 362 0
159 164 189 319 329 339 344 364 0
156 166 191 316 326 336 346 356 0
159 169 194 319 329 339 349 359 0
159 224 319 329 339 359 364 0
156 231 316 326 336 356 371 0
157 242 317 327 337 362 372 0
164 169 199 319 329 344 349 354 0
165 170 200 320 330 345 350 355 0
164 209 319 329 344 354 364 0
165 215 320 330 345 355 370 0
162 237 317 327 342 362 367 0
169 204 319 329 349 354 359 0
170 210 320 330 350 355 365 0
166 221 316 326 346 356 361 0
204 209 224 319 329 354 359 364 0
210 215 240 320 330 355 365 370 0
221 231 241 316 326 356 361 371 0
237 242 247 317 327 362 367 372 0
173 178 183 188 193 198 318 333 338 343 348 0
172 177 187 317 332 337 342 357 0
173 178 188 318 333 338 343 358 0
171 181 191 316 331 336 346 351 0
173 183 193 318 333 338 348 353 0
173 203 318 333 338 353 358 0
171 216 316 331 336 351 371 0
172 232 317 332 337 357 372 0
178 183 198 318 333 343 348 373 0
180 185 200 320 335 345 350 375 0
177 227 317 332 342 357 367 0
178 233 318 333 343 358 373 0
180 250 320 335 345 370 375 0
181 206 316 331 346 351 361 0
183 218 318 333 348 353 373 0
185 245 320 335 350 365 375 0
203 218 233 318 333 353 358 373 0
206 216 241 316 331 351 361 371 0
227 232 247 317 332 357 367 372 0
240 245 250 320 335 365 370 375 0
188 193 198 318 338 343 348 368 0
189 194 199 319 339 344 349 369 0
187 222 317 337 342 357 362 0
188 228 318 338 343 358 368 0
189 239 319 339 344 364 369 0
191 201 316 336 346 351 356 0
193 213 318 338 348 353 368 0
194 229 319 339 349 359 369 0
203 213 228 318 338 353 358 368 0
201 216 231 316 336 351 356 371 0
224 229 239 319 339 359 364 369 0
222 232 242 317 337 357 362 372 0
199 214 319 344 349 354 369 0
200 220 320 345 350 355 375 0
198 248 318 343 348 368 373 0
209 214 239 319 344 354 364 369 0
215 220 250 320 345 355 370 375 0
222 227 237 317 342 357 362 367 0
228 233 248 318 343 358 368 373 0
201 206 221 316 346 351 356 361 0
204 214 229 319 349 354 359 369 0
210 220 245 320 350 355 365 375 0
213 218 248 318 348 353 368 373 0
204 209 214 224 229 239 319 354 359 364 369 0
201 206 216 221 231 241 316 351 356 361 371 0
203 213 218 228 233 248 318 353 358 368 373 0
210 215 220 240 245 250 320 355 365 370 375 0
222 227 232 237 242 247 317 357 362 367 372 0
151 156 161 171 176 186 321 326 331 336 341 0
155 160 170 175 185 195 325 330 335 340 350 0
151 156 171 321 326 331 336 366 0
155 160 175 325 330 335 340 370 0
154 164 169 179 184 199 324 329 334 344 349 0
151 161 176 321 326 331 341 361 0
154 164 179 324 329 334 344 364 0
154 169 184 324 329 334 349 359 0
155 170 185 325 330 335 350 360 0
154 224 324 329 334 359 364 0
155 230 325 330 335 360 370 0
151 236 321 326 331 361 366 0
158 163 168 188 193 198 323 328 338 343 348 0
156 161 186 321 326 336 341 356 0
158 163 188 323 328 338 343 358 0
158 168 193 323 328 338 348 353 0
160 170 195 325 330 340 350 355 0
158 203 323 328 338 353 358 0
160 215 325 330 340 355 370 0
156 226 321 326 336 356 366 0
163 168 198 323 328 343 348 373 0
164 169 199 324 329 344 349 374 0
161 221 321 326 341 356 361 0
163 233 323 328 343 358 373 0
164 244 324 329 344 364 374 0
170 205 325 330 350 355 360 0
168 218 323 328 348 353 373 0
169 234 324 329 349 359 374 0
205 215 230 325 330 355 360 370 0
203 218 233 323 328 353 358 373 0
221 226 236 321 326 356 361 366 0
224 234 244 324 329 359 364 374 0
172 177 182 187 192 197 322 332 337 342 347 0
171 176 186 321 331 336 341 351 0
172 177 187 322 332 337 342 352 0
172 182 192 322 332 337 347 372 0
175 185 195 325 335 340 350 375 0
171 211 321 331 336 351 366 0
172 217 322 332 337 352 372 0
175 250 325 335 340 370 375 0
177 182 197 322 332 342 347 367 0
179 184 199 324 334 344 349 369 0
176 206 321 331 341 351 361 0
177 212 322 332 342 352 367 0
179 239 324 334 344 364 369 0
184 229 324 334 349 359 369 0
185 235 325 335 350 360 375 0
182 247 322 332 347 367 372 0
206 211 236 321 331 351 361 366 0
212 217 247 322 332 352 367 372 0
224 229 239 324 334 359 364 369 0
230 235 250 325 335 360 370 375 0
187 192 197 322 337 342 347 362 0
188 193 198 323 338 343 348 363 0
186 201 321 336 341 351 356 0
187 207 322 337 342 352 362 0
188 223 323 338 343 358 363 0
193 208 323 338 348 353 363 0
195 220 325 340 350 355 375 0
192 242 322 337 347 362 372 0
203 208 223 323 338 353 358 363 0
201 211 226 321 336 351 356 366 0
207 217 242 322 337 352 362 372 0
215 220 250 325 340 355 370 375 0
197 237 322 342 347 362 367 0
198 243 323 343 348 363 373 0
199 249 324 344 349 369 374 0
201 206 221 321 341 351 356 361 0
207 212 237 322 342 352 362 367 0
223 233 243 323 343 358 363 373 0
239 244 249 324 344 364 369 374 0
205 220 235 325 350 355 360 375 0
208 218 243 323 348 353 363 373 0
229 234 249 324 349 359 369 374 0
237 242 247 322 347 362 367 372 0
201 206 211 221 226 236 321 351 356 361 366 0
203 208 218 223 233 243 323 353 358 363 373 0
205 215 220 230 235 250 325 355 360 370 375 0
207 212 217 237 242 247 322 352 362 367 372 0
224 229 234 239 244 249 324 359 364 369 374 0
151 156 161 166 171 176 181 186 191 196 326 331 336 341 346 0
152 157 162 167 172 177 182 187 192 197 327 332 337 342 347 0
153 158 163 168 173 178 183 188 193 198 328 333 338 343 348 0
154 159 164 169 174 179 184 189 194 199 329 334 339 344 349 0
155 160 165 170 175 180 185 190 195 200 330 335 340 345 350 0
152 157 162 172 177 187 327 332 337 342 352 0
153 158 163 173 178 188 328 333 338 343 358 0
154 159 164 174 179 189 329 334 339 344 364 0
155 160 165 175 180 190 330 335 340 345 370 0
151 156 161 171 176 186 326 331 336 341 371 0
153 158 168 173 183 193 328 333 338 348 353 0
154 159 169 174 184 194 329 334 339 349 359 0
155 160 170 175 185 195 330 335 340 350 365 0
151 156 166 171 181 191 326 331 336 346 366 0
152 157 167 172 182 192 327 332 337 347 372 0
153 158 173 203 328 333 338 353 358 0
152 157 172 217 327 332 337 352 372 0
154 159 174 224 329 334 339 359 364 0
155 160 175 240 330 335 340 365 370 0
151 156 171 246 326 331 336 366 371 0
154 164 169 179 184 199 329 334 344 349 354 0
155 165 170 180 185 200 330 335 345 350 360 0
151 161 166 176 181 196 326 331 341 346 361 0
152 162 167 177 182 197 327 332 342 347 367 0
153 163 168 178 183 198 328 333 343 348 373 0
154 164 179 209 329 334 344 354 364 0
152 162 177 212 327 332 342 352 367 0
155 165 180 230 330 335 345 360 370 0
153 163 178 233 328 333 343 358 373 0
151 161 176 241 326 331 341 361 371 0
154 169 184 204 329 334 349 354 359 0
153 168 183 218 328 333 348 353 373 0
155 170 185 225 330 335 350 360 365 0
151 166 181 236 326 331 346 361 366 0
152 167 182 247 327 332 347 367 372 0
154 204 209 224 329 334 354 359 364 0
153 203 218 233 328 333 353 358 373 0
152 212 217 247 327 332 352 367 372 0
155 225 230 240 330 335 360 365 370 0
151 236 241 246 326 331 361 366 371 0
160 165 170 190 195 200 330 340 345 350 355 0
156 161 166 186 191 196 326 336 341 346 356 0
157 162 167 187 192 197 327 337 342 347 362 0
158 163 168 188 193 198 328 338 343 348 368 0
159 164 169 189 194 199 329 339 344 349 374 0
157 162 187 207 327 337 342 352 362 0
160 165 190 215 330 340 345 355 370 0
158 163 188 228 328 338 343 358 368 0
156 161 186 231 326 336 341 356 371 0
159 164 189 244 329 339 344 364 374 0
160 170 195 210 330 340 350 355 365 0
158 168 193 213 328 338 348 353 368 0
156 166 191 226 326 336 346 356 366 0
159 169 194 234 329 339 349 359 374 0
157 167 192 242 327 337 347 362 372 0
158 203 213 228 328 338 353 358 368 0
160 210 215 240 330 340 355 365 370 0
157 207 217 242 327 337 352 362 372 0
159 224 234 244 329 339 359 364 374 0
156 226 231 246 326 336 356 366 371 0
165 170 200 205 330 345 350 355 360 0
164 169 199 219 329 344 349 354 374 0
161 166 196 221 326 341 346 356 361 0
162 167 197 237 327 342 347 362 367 0
163 168 198 248 328 343 348 368 373 0
165 205 215 230 330 345 355 360 370 0
162 207 212 237 327 342 352 362 367 0
164 209 219 244 329 344 354 364 374 0
161 221 231 241 326 341 356 361 371 0
163 228 233 248 328 343 358 368 373 0
170 205 210 225 330 350 355 360 365 0
169 204 219 234 329 349 354 359 374 0
168 213 218 248 328 348 353 368 373 0
166 221 226 236 326 346 356 361 366 0
167 237 242 247 327 347 362 367 372 0
205 210 215 225 230 240 330 355 360 365 370 0
204 209 219 224 234 244 329 354 359 364 374 0
203 213 218 228 233 248 328 353 358 368 373 0
207 212 217 237 242 247 327 352 362 367 372 0
221 226 231 236 241 246 326 356 361 366 371 0
171 176 181 186 191 196 331 336 341 346 351 0
172 177 182 187 192 197 332 337 342 347 357 0
173 178 183 188 193 198 333 338 343 348 363 0
174 179 184 189 194 199 334 339 344 349 369 0
175 180 185 190 195 200 335 340 345 350 375 0
172 177 187 202 332 337 342 352 357 0
171 176 186 216 331 336 341 351 371 0
173 178 188 223 333 338 343 358 363 0
174 179 189 239 334 339 344 364 369 0
175 180 190 250 335 340 345 370 375 0
173 183 193 208 333 338 348 353 363 0
171 181 191 211 331 336 346 351 366 0
174 184 194 229 334 339 349 359 369 0
172 182 192 232 332 337 347 357 372 0
175 185 195 245 335 340 350 365 375 0
173 203 208 223 333 338 353 358 363 0
172 202 217 232 332 337 352 357 372 0
171 211 216 246 331 336 351 366 371 0
174 224 229 239 334 339 359 364 369 0
175 240 245 250 335 340 365 370 375 0
176 181 196 206 331 341 346 351 361 0
179 184 199 214 334 344 349 354 369 0
177 182 197 227 332 342 347 357 367 0
180 185 200 235 335 345 350 360 375 0
178 183 198 243 333 343 348 363 373 0
177 202 212 227 332 342 352 357 367 0
179 209 214 239 334 344 354 364 369 0
176 206 216 241 331 341 351 361 371 0
178 223 233 243 333 343 358 363 373 0
180 230 235 250 335 345 360 370 375 0
184 204 214 229 334 349 354 359 369 0
181 206 211 236 331 346 351 361 366 0
183 208 218 243 333 348 353 363 373 0
185 225 235 245 335 350 360 365 375 0
182 227 232 247 332 347 357 367 372 0
204 209 214 224 229 239 334 354 359 364 369 0
203 208 218 223 233 243 333 353 358 363 373 0
202 212 217 227 232 247 332 352 357 367 372 0
206 211 216 236 241 246 331 351 361 366 371 0
225 230 235 240 245 250 335 360 365 370 375 0
186 191 196 201 336 341 346 351 356 0
190 195 200 220 340 345 350 355 375 0
187 192 197 222 337 342 347 357 362 0
188 193 198 238 338 343 348 363 368 0
189 194 199 249 339 344 349 369 374 0
187 202 207 222 337 342 352 357 362 0
186 201 216 231 336 341 351 356 371 0
190 215 220 250 340 345 355 370 375 0
188 223 228 238 338 343 358 363 368 0
189 239 244 249 339 344 364 369 374 0
191 201 211 226 336 346 351 356 366 0
193 208 213 238 338 348 353 363 368 0
195 210 220 245 340 350 355 365 375 0
192 222 232 242 337 347 357 362 372 0
194 229 234 249 339 349 359 369 374 0
203 208 213 223 228 238 338 353 358 363 368 0
202 207 217 222 232 242 337 352 357 362 372 0
201 211 216 226 231 246 336 351 356 366 371 0
210 215 220 240 245 250 340 355 365 370 375 0
224 229 234 239 244 249 339 359 364 369 374 0
196 201 206 221 341 346 351 356 361 0
200 205 220 235 345 350 355 360 375 0
199 214 219 249 344 349 354 369 374 0
197 222 227 237 342 347 357 362 367 0
198 238 243 248 343 348 363 368 373 0
202 207 212 222 227 237 342 352 357 362 367 0
201 206 216 221 231 241 341 351 356 361 371 0
205 215 220 230 235 250 345 355 360 370 375 0
209 214 219 239 244 249 344 354 364 369 374 0
223 228 233 238 243 248 343 358 363 368 373 0
201 206 211 221 226 236 346 351 356 361 366 0
205 210 220 225 235 245 350 355 360 365 375 0
204 214 219 229 234 249 349 354 359 369 374 0
208 213 218 238 243 248 348 353 363 368 373 0
222 227 232 237 242 247 347 357 362 367 372 0
201 206 211 216 221 226 231 236 241 246 351 356 361 366 371 0
202 207 212 217 222 227 232 237 242 247 352 357 362 367 372 0
203 208 213 218 223 228 233 238 243 248 353 358 363 368 373 0
204 209 214 219 224 229 234 239 244 249 354 359 364 369 374 0
205 210 215 220 225 230 235 240 245 250 355 360 365 370 375 0
