0 1 0
0 1 0
0 2 0
0 3 0
0 4 0
0 5 0
0 6 1
0 7 3
0 8 2
0 9 4
0 10 0
0 11 2
0 12 1
0 13 4
0 14 3
0 15 0
0 16 3
0 17 4
0 18 1
0 19 2
0 20 0
0 21 4
0 22 2
0 23 3
0 24 1
1 2 0
1 3 0
1 4 0
1 5 4
1 6 0
1 7 1
1 8 3
1 9 2
1 10 3
1 11 0
1 12 2
1 13 1
1 14 4
1 15 2
1 16 0
1 17 3
1 18 4
1 19 1
1 20 1
1 21 0
1 22 4
1 23 2
1 24 3
2 3 0
2 4 0
2 5 2
2 6 4
2 7 0
2 8 1
2 9 3
2 10 4
2 11 3
2 12 0
2 13 2
2 14 1
2 15 1
2 16 2
2 17 0
2 18 3
2 19 4
2 20 3
2 21 1
2 22 0
2 23 4
2 24 2
3 4 0
3 5 3
3 6 2
3 7 4
3 8 0
3 9 1
3 10 1
3 11 4
3 12 3
3 13 0
3 14 2
3 15 4
3 16 1
3 17 2
3 18 0
3 19 3
3 20 2
3 21 3
3 22 1
3 23 0
3 24 4
4 5 1
4 6 3
4 7 2
4 8 4
4 9 0
4 10 2
4 11 1
4 12 4
4 13 3
4 14 0
4 15 3
4 16 4
4 17 1
4 18 2
4 19 0
4 20 4
4 21 2
4 22 3
4 23 1
4 24 0
5 6 0
5 7 0
5 8 0
5 9 0
5 10 0
5 11 1
5 12 3
5 13 2
5 14 4
5 15 0
5 16 2
5 17 1
5 18 4
5 19 3
5 20 0
5 21 3
5 22 4
5 23 1
5 24 2
6 7 0
6 8 0
6 9 0
6 10 4
6 11 0
6 12 1
6 13 3
6 14 2
6 15 3
6 16 0
6 17 2
6 18 1
6 19 4
6 20 2
6 21 0
6 22 3
6 23 4
6 24 1
7 8 0
7 9 0
7 10 2
7 11 4
7 12 0
7 13 1
7 14 3
7 15 4
7 16 3
7 17 0
7 18 2
7 19 1
7 20 1
7 21 2
7 22 0
7 23 3
7 24 4
8 9 0
8 10 3
8 11 2
8 12 4
8 13 0
8 14 1
8 15 1
8 16 4
8 17 3
8 18 0
8 19 2
8 20 4
8 21 1
8 22 2
8 23 0
8 24 3
9 10 1
9 11 3
9 12 2
9 13 4
9 14 0
9 15 2
9 16 1
9 17 4
9 18 3
9 19 0
9 20 3
9 21 4
9 22 1
9 23 2
9 24 0
10 11 0
10 12 0
10 13 0
10 14 0
10 15 0
10 16 1
10 17 3
10 18 2
10 19 4
10 20 0
10 21 2
10 22 1
10 23 4
10 24 3
11 12 0
11 13 0
11 14 0
11 15 4
11 16 0
11 17 1
11 18 3
11 19 2
11 20 3
11 21 0
11 22 2
11 23 1
11 24 4
12 13 0
12 14 0
12 15 2
12 16 4
12 17 0
12 18 1
12 19 3
12 20 4
12 21 3
12 22 0
12 23 2
12 24 1
13 14 0
13 15 3
13 16 2
13 17 4
13 18 0
13 19 1
13 20 1
13 21 4
13 22 3
13 23 0
13 24 2
14 15 1
14 16 3
14 17 2
14 18 4
14 19 0
14 20 2
14 21 1
14 22 4
14 23 3
14 24 0
15 16 0
15 17 0
15 18 0
15 19 0
15 20 0
15 21 1
15 22 3
15 23 2
15 24 4
16 17 0
16 18 0
16 19 0
16 20 4
16 21 0
16 22 1
16 23 3
16 24 2
17 18 0
17 19 0
17 20 2
17 21 4
17 22 0
17 23 1
17 24 3
18 19 0
18 20 3
18 21 2
18 22 4
18 23 0
18 24 1
19 20 1
19 21 3
19 22 2
19 23 4
19 24 0
20 21 0
20 22 0
20 23 0
20 24 0
21 22 0
21 23 0
21 24 0
22 23 0
22 24 0
23 24 0
