p cnf 296 1053
-12 11 0
-12 15 0
-11 -15 12 0
-13 11 0
-13 16 0
-11 -16 13 0
-14 11 0
-14 17 0
-11 -17 14 0
-13 12 0
-13 18 0
-12 -18 13 0
-14 12 0
-14 19 0
-12 -19 14 0
-14 13 0
-14 20 0
-13 -20 14 0
-16 15 0
-16 18 0
-15 -18 16 0
-17 15 0
-17 19 0
-15 -19 17 0
-17 16 0
-17 20 0
-16 -20 17 0
-19 18 0
-19 20 0
-18 -20 19 0
-22 0
-23 0
-24 0
-25 0
-26 0
-2 27 0
-1 27 0
1 2 -27 0
-1 -2 28 0
1 -28 0
-22 28 0
22 2 -28 0
-22 -2 29 0
22 -29 0
-23 29 0
23 2 -29 0
-23 -2 30 0
23 -30 0
-24 30 0
24 2 -30 0
-24 -2 31 0
24 -31 0
-25 31 0
25 2 -31 0
-25 -2 32 0
25 -32 0
-26 32 0
26 2 -32 0
-3 33 0
-27 33 0
27 3 -33 0
-27 -3 34 0
27 -34 0
-28 34 0
28 3 -34 0
-28 -3 35 0
28 -35 0
-29 35 0
29 3 -35 0
-29 -3 36 0
29 -36 0
-30 36 0
30 3 -36 0
-30 -3 37 0
30 -37 0
-31 37 0
31 3 -37 0
-31 -3 38 0
31 -38 0
-32 38 0
32 3 -38 0
-4 39 0
-33 39 0
33 4 -39 0
-33 -4 40 0
33 -40 0
-34 40 0
34 4 -40 0
-34 -4 41 0
34 -41 0
-35 41 0
35 4 -41 0
-35 -4 42 0
35 -42 0
-36 42 0
36 4 -42 0
-36 -4 43 0
36 -43 0
-37 43 0
37 4 -43 0
-37 -4 44 0
37 -44 0
-38 44 0
38 4 -44 0
-5 45 0
-39 45 0
39 5 -45 0
-39 -5 46 0
39 -46 0
-40 46 0
40 5 -46 0
-40 -5 47 0
40 -47 0
-41 47 0
41 5 -47 0
-41 -5 48 0
41 -48 0
-42 48 0
42 5 -48 0
-42 -5 49 0
42 -49 0
-43 49 0
43 5 -49 0
-43 -5 50 0
43 -50 0
-44 50 0
44 5 -50 0
-6 51 0
-45 51 0
45 6 -51 0
-45 -6 52 0
45 -52 0
-46 52 0
46 6 -52 0
-46 -6 53 0
46 -53 0
-47 53 0
47 6 -53 0
-47 -6 54 0
47 -54 0
-48 54 0
48 6 -54 0
-48 -6 55 0
48 -55 0
-49 55 0
49 6 -55 0
-49 -6 56 0
49 -56 0
-50 56 0
50 6 -56 0
-7 57 0
-51 57 0
51 7 -57 0
-51 -7 58 0
51 -58 0
-52 58 0
52 7 -58 0
-52 -7 59 0
52 -59 0
-53 59 0
53 7 -59 0
-53 -7 60 0
53 -60 0
-54 60 0
54 7 -60 0
-54 -7 61 0
54 -61 0
-55 61 0
55 7 -61 0
-55 -7 62 0
55 -62 0
-56 62 0
56 7 -62 0
-8 63 0
-57 63 0
57 8 -63 0
-57 -8 64 0
57 -64 0
-58 64 0
58 8 -64 0
-58 -8 65 0
58 -65 0
-59 65 0
59 8 -65 0
-59 -8 66 0
59 -66 0
-60 66 0
60 8 -66 0
-60 -8 67 0
60 -67 0
-61 67 0
61 8 -67 0
-61 -8 68 0
61 -68 0
-62 68 0
62 8 -68 0
-9 69 0
-63 69 0
63 9 -69 0
-63 -9 70 0
63 -70 0
-64 70 0
64 9 -70 0
-64 -9 71 0
64 -71 0
-65 71 0
65 9 -71 0
-65 -9 72 0
65 -72 0
-66 72 0
66 9 -72 0
-66 -9 73 0
66 -73 0
-67 73 0
67 9 -73 0
-67 -9 74 0
67 -74 0
-68 74 0
68 9 -74 0
-10 75 0
-69 75 0
69 10 -75 0
-69 -10 76 0
69 -76 0
-70 76 0
70 10 -76 0
-70 -10 77 0
70 -77 0
-71 77 0
71 10 -77 0
-71 -10 78 0
71 -78 0
-72 78 0
72 10 -78 0
-72 -10 79 0
72 -79 0
-73 79 0
73 10 -79 0
-73 -10 80 0
73 -80 0
-74 80 0
74 10 -80 0
-26 -2 0
-32 -3 0
-38 -4 0
-44 -5 0
-50 -6 0
-56 -7 0
-62 -8 0
-68 -9 0
-74 -10 0
80 0
81 -2 -5 0
-81 2 0
-81 5 0
82 -3 -6 0
-82 3 0
-82 6 0
83 -4 -7 0
-83 4 0
-83 7 0
84 -1 -5 0
-84 1 0
-84 5 0
85 -3 -8 0
-85 3 0
-85 8 0
86 -4 -9 0
-86 4 0
-86 9 0
87 -1 -6 0
-87 1 0
-87 6 0
88 -2 -8 0
-88 2 0
-88 8 0
89 -4 -10 0
-89 4 0
-89 10 0
90 -1 -7 0
-90 1 0
-90 7 0
91 -2 -9 0
-91 2 0
-91 9 0
92 -3 -10 0
-92 3 0
-92 10 0
93 -1 -2 0
-93 1 0
-93 2 0
94 -6 -8 0
-94 6 0
-94 8 0
95 -7 -9 0
-95 7 0
-95 9 0
96 -1 -3 0
-96 1 0
-96 3 0
97 -5 -8 0
-97 5 0
-97 8 0
98 -7 -10 0
-98 7 0
-98 10 0
99 -1 -4 0
-99 1 0
-99 4 0
100 -5 -9 0
-100 5 0
-100 9 0
101 -6 -10 0
-101 6 0
-101 10 0
102 -2 -3 0
-102 2 0
-102 3 0
103 -5 -6 0
-103 5 0
-103 6 0
104 -9 -10 0
-104 9 0
-104 10 0
105 -2 -4 0
-105 2 0
-105 4 0
106 -5 -7 0
-106 5 0
-106 7 0
107 -8 -10 0
-107 8 0
-107 10 0
108 -3 -4 0
-108 3 0
-108 4 0
109 -6 -7 0
-109 6 0
-109 7 0
110 -8 -9 0
-110 8 0
-110 9 0
-81 -111 0
-82 -111 0
-83 -111 0
-84 -112 0
-85 -112 0
-86 -112 0
-87 -113 0
-88 -113 0
-89 -113 0
-90 -114 0
-91 -114 0
-92 -114 0
-93 -115 0
-94 -115 0
-95 -115 0
-96 -116 0
-97 -116 0
-98 -116 0
-99 -117 0
-100 -117 0
-101 -117 0
-102 -118 0
-103 -118 0
-104 -118 0
-105 -119 0
-106 -119 0
-107 -119 0
-108 -120 0
-109 -120 0
-110 -120 0
1 81 82 83 0
2 84 85 86 0
3 87 88 89 0
4 90 91 92 0
5 93 94 95 0
6 96 97 98 0
7 99 100 101 0
8 102 103 104 0
9 105 106 107 0
10 108 109 110 0
2 -121 0
-5 -121 0
-94 -121 0
-95 -121 0
5 -122 0
-2 -122 0
-85 -122 0
-86 -122 0
3 -123 0
-6 -123 0
-97 -123 0
-98 -123 0
6 -124 0
-3 -124 0
-88 -124 0
-89 -124 0
4 -125 0
-7 -125 0
-100 -125 0
-101 -125 0
7 -126 0
-4 -126 0
-91 -126 0
-92 -126 0
-1 111 121 122 123 124 125 126 0
1 -127 0
-5 -127 0
-94 -127 0
-95 -127 0
5 -128 0
-1 -128 0
-82 -128 0
-83 -128 0
3 -129 0
-8 -129 0
-103 -129 0
-104 -129 0
8 -130 0
-3 -130 0
-87 -130 0
-89 -130 0
4 -131 0
-9 -131 0
-106 -131 0
-107 -131 0
9 -132 0
-4 -132 0
-90 -132 0
-92 -132 0
-2 112 127 128 129 130 131 132 0
1 -133 0
-6 -133 0
-97 -133 0
-98 -133 0
6 -134 0
-1 -134 0
-81 -134 0
-83 -134 0
2 -135 0
-8 -135 0
-103 -135 0
-104 -135 0
8 -136 0
-2 -136 0
-84 -136 0
-86 -136 0
4 -137 0
-10 -137 0
-109 -137 0
-110 -137 0
10 -138 0
-4 -138 0
-90 -138 0
-91 -138 0
-3 113 133 134 135 136 137 138 0
1 -139 0
-7 -139 0
-100 -139 0
-101 -139 0
7 -140 0
-1 -140 0
-81 -140 0
-82 -140 0
2 -141 0
-9 -141 0
-106 -141 0
-107 -141 0
9 -142 0
-2 -142 0
-84 -142 0
-85 -142 0
3 -143 0
-10 -143 0
-109 -143 0
-110 -143 0
10 -144 0
-3 -144 0
-87 -144 0
-88 -144 0
-4 114 139 140 141 142 143 144 0
1 -145 0
-2 -145 0
-85 -145 0
-86 -145 0
2 -146 0
-1 -146 0
-82 -146 0
-83 -146 0
6 -147 0
-8 -147 0
-102 -147 0
-104 -147 0
8 -148 0
-6 -148 0
-96 -148 0
-98 -148 0
7 -149 0
-9 -149 0
-105 -149 0
-107 -149 0
9 -150 0
-7 -150 0
-99 -150 0
-101 -150 0
-5 115 145 146 147 148 149 150 0
1 -151 0
-3 -151 0
-88 -151 0
-89 -151 0
3 -152 0
-1 -152 0
-81 -152 0
-83 -152 0
5 -153 0
-8 -153 0
-102 -153 0
-104 -153 0
8 -154 0
-5 -154 0
-93 -154 0
-95 -154 0
7 -155 0
-10 -155 0
-108 -155 0
-110 -155 0
10 -156 0
-7 -156 0
-99 -156 0
-100 -156 0
-6 116 151 152 153 154 155 156 0
1 -157 0
-4 -157 0
-91 -157 0
-92 -157 0
4 -158 0
-1 -158 0
-81 -158 0
-82 -158 0
5 -159 0
-9 -159 0
-105 -159 0
-107 -159 0
9 -160 0
-5 -160 0
-93 -160 0
-94 -160 0
6 -161 0
-10 -161 0
-108 -161 0
-110 -161 0
10 -162 0
-6 -162 0
-96 -162 0
-97 -162 0
-7 117 157 158 159 160 161 162 0
2 -163 0
-3 -163 0
-87 -163 0
-89 -163 0
3 -164 0
-2 -164 0
-84 -164 0
-86 -164 0
5 -165 0
-6 -165 0
-96 -165 0
-98 -165 0
6 -166 0
-5 -166 0
-93 -166 0
-95 -166 0
9 -167 0
-10 -167 0
-108 -167 0
-109 -167 0
10 -168 0
-9 -168 0
-105 -168 0
-106 -168 0
-8 118 163 164 165 166 167 168 0
2 -169 0
-4 -169 0
-90 -169 0
-92 -169 0
4 -170 0
-2 -170 0
-84 -170 0
-85 -170 0
5 -171 0
-7 -171 0
-99 -171 0
-101 -171 0
7 -172 0
-5 -172 0
-93 -172 0
-94 -172 0
8 -173 0
-10 -173 0
-108 -173 0
-109 -173 0
10 -174 0
-8 -174 0
-102 -174 0
-103 -174 0
-9 119 169 170 171 172 173 174 0
3 -175 0
-4 -175 0
-90 -175 0
-91 -175 0
4 -176 0
-3 -176 0
-87 -176 0
-88 -176 0
6 -177 0
-7 -177 0
-99 -177 0
-100 -177 0
7 -178 0
-6 -178 0
-96 -178 0
-97 -178 0
8 -179 0
-9 -179 0
-105 -179 0
-106 -179 0
9 -180 0
-8 -180 0
-102 -180 0
-103 -180 0
-10 120 175 176 177 178 179 180 0
-182 0
-183 0
-184 0
-185 0
-2 186 0
-1 186 0
1 2 -186 0
-1 -2 187 0
1 -187 0
-182 187 0
182 2 -187 0
-182 -2 188 0
182 -188 0
-183 188 0
183 2 -188 0
-183 -2 189 0
183 -189 0
-184 189 0
184 2 -189 0
-184 -2 190 0
184 -190 0
-185 190 0
185 2 -190 0
-3 191 0
-186 191 0
186 3 -191 0
-186 -3 192 0
186 -192 0
-187 192 0
187 3 -192 0
-187 -3 193 0
187 -193 0
-188 193 0
188 3 -193 0
-188 -3 194 0
188 -194 0
-189 194 0
189 3 -194 0
-189 -3 195 0
189 -195 0
-190 195 0
190 3 -195 0
-4 196 0
-191 196 0
191 4 -196 0
-191 -4 197 0
191 -197 0
-192 197 0
192 4 -197 0
-192 -4 198 0
192 -198 0
-193 198 0
193 4 -198 0
-193 -4 199 0
193 -199 0
-194 199 0
194 4 -199 0
-194 -4 200 0
194 -200 0
-195 200 0
195 4 -200 0
-202 0
-203 0
-204 0
-205 0
-5 206 0
-1 206 0
1 5 -206 0
-1 -5 207 0
1 -207 0
-202 207 0
202 5 -207 0
-202 -5 208 0
202 -208 0
-203 208 0
203 5 -208 0
-203 -5 209 0
203 -209 0
-204 209 0
204 5 -209 0
-204 -5 210 0
204 -210 0
-205 210 0
205 5 -210 0
-6 211 0
-206 211 0
206 6 -211 0
-206 -6 212 0
206 -212 0
-207 212 0
207 6 -212 0
-207 -6 213 0
207 -213 0
-208 213 0
208 6 -213 0
-208 -6 214 0
208 -214 0
-209 214 0
209 6 -214 0
-209 -6 215 0
209 -215 0
-210 215 0
210 6 -215 0
-7 216 0
-211 216 0
211 7 -216 0
-211 -7 217 0
211 -217 0
-212 217 0
212 7 -217 0
-212 -7 218 0
212 -218 0
-213 218 0
213 7 -218 0
-213 -7 219 0
213 -219 0
-214 219 0
214 7 -219 0
-214 -7 220 0
214 -220 0
-215 220 0
215 7 -220 0
-222 0
-223 0
-224 0
-225 0
-5 226 0
-2 226 0
2 5 -226 0
-2 -5 227 0
2 -227 0
-222 227 0
222 5 -227 0
-222 -5 228 0
222 -228 0
-223 228 0
223 5 -228 0
-223 -5 229 0
223 -229 0
-224 229 0
224 5 -229 0
-224 -5 230 0
224 -230 0
-225 230 0
225 5 -230 0
-8 231 0
-226 231 0
226 8 -231 0
-226 -8 232 0
226 -232 0
-227 232 0
227 8 -232 0
-227 -8 233 0
227 -233 0
-228 233 0
228 8 -233 0
-228 -8 234 0
228 -234 0
-229 234 0
229 8 -234 0
-229 -8 235 0
229 -235 0
-230 235 0
230 8 -235 0
-9 236 0
-231 236 0
231 9 -236 0
-231 -9 237 0
231 -237 0
-232 237 0
232 9 -237 0
-232 -9 238 0
232 -238 0
-233 238 0
233 9 -238 0
-233 -9 239 0
233 -239 0
-234 239 0
234 9 -239 0
-234 -9 240 0
234 -240 0
-235 240 0
235 9 -240 0
-242 0
-243 0
-244 0
-245 0
-6 246 0
-3 246 0
3 6 -246 0
-3 -6 247 0
3 -247 0
-242 247 0
242 6 -247 0
-242 -6 248 0
242 -248 0
-243 248 0
243 6 -248 0
-243 -6 249 0
243 -249 0
-244 249 0
244 6 -249 0
-244 -6 250 0
244 -250 0
-245 250 0
245 6 -250 0
-8 251 0
-246 251 0
246 8 -251 0
-246 -8 252 0
246 -252 0
-247 252 0
247 8 -252 0
-247 -8 253 0
247 -253 0
-248 253 0
248 8 -253 0
-248 -8 254 0
248 -254 0
-249 254 0
249 8 -254 0
-249 -8 255 0
249 -255 0
-250 255 0
250 8 -255 0
-10 256 0
-251 256 0
251 10 -256 0
-251 -10 257 0
251 -257 0
-252 257 0
252 10 -257 0
-252 -10 258 0
252 -258 0
-253 258 0
253 10 -258 0
-253 -10 259 0
253 -259 0
-254 259 0
254 10 -259 0
-254 -10 260 0
254 -260 0
-255 260 0
255 10 -260 0
-262 0
-263 0
-264 0
-265 0
-7 266 0
-4 266 0
4 7 -266 0
-4 -7 267 0
4 -267 0
-262 267 0
262 7 -267 0
-262 -7 268 0
262 -268 0
-263 268 0
263 7 -268 0
-263 -7 269 0
263 -269 0
-264 269 0
264 7 -269 0
-264 -7 270 0
264 -270 0
-265 270 0
265 7 -270 0
-9 271 0
-266 271 0
266 9 -271 0
-266 -9 272 0
266 -272 0
-267 272 0
267 9 -272 0
-267 -9 273 0
267 -273 0
-268 273 0
268 9 -273 0
-268 -9 274 0
268 -274 0
-269 274 0
269 9 -274 0
-269 -9 275 0
269 -275 0
-270 275 0
270 9 -275 0
-10 276 0
-271 276 0
271 10 -276 0
-271 -10 277 0
271 -277 0
-272 277 0
272 10 -277 0
-272 -10 278 0
272 -278 0
-273 278 0
273 10 -278 0
-273 -10 279 0
273 -279 0
-274 279 0
274 10 -279 0
-274 -10 280 0
274 -280 0
-275 280 0
275 10 -280 0
-196 216 0
-197 217 0
-198 218 0
-199 219 0
281 -196 -216 197 217 0
-281 196 0
-281 216 0
-281 -197 0
-281 -217 0
282 -197 -217 198 218 0
-282 197 0
-282 217 0
-282 -198 0
-282 -218 0
283 -198 -218 199 219 0
-283 198 0
-283 218 0
-283 -199 0
-283 -219 0
284 -199 -219 200 220 0
-284 199 0
-284 219 0
-284 -200 0
-284 -220 0
-11 281 282 283 284 0
11 -281 0
11 -282 0
11 -283 0
11 -284 0
-216 236 0
-217 237 0
-218 238 0
-219 239 0
285 -216 -236 217 237 0
-285 216 0
-285 236 0
-285 -217 0
-285 -237 0
286 -217 -237 218 238 0
-286 217 0
-286 237 0
-286 -218 0
-286 -238 0
287 -218 -238 219 239 0
-287 218 0
-287 238 0
-287 -219 0
-287 -239 0
288 -219 -239 220 240 0
-288 219 0
-288 239 0
-288 -220 0
-288 -240 0
-15 285 286 287 288 0
15 -285 0
15 -286 0
15 -287 0
15 -288 0
-236 256 0
-237 257 0
-238 258 0
-239 259 0
289 -236 -256 237 257 0
-289 236 0
-289 256 0
-289 -237 0
-289 -257 0
290 -237 -257 238 258 0
-290 237 0
-290 257 0
-290 -238 0
-290 -258 0
291 -238 -258 239 259 0
-291 238 0
-291 258 0
-291 -239 0
-291 -259 0
292 -239 -259 240 260 0
-292 239 0
-292 259 0
-292 -240 0
-292 -260 0
-18 289 290 291 292 0
18 -289 0
18 -290 0
18 -291 0
18 -292 0
-256 276 0
-257 277 0
-258 278 0
-259 279 0
293 -256 -276 257 277 0
-293 256 0
-293 276 0
-293 -257 0
-293 -277 0
294 -257 -277 258 278 0
-294 257 0
-294 277 0
-294 -258 0
-294 -278 0
295 -258 -278 259 279 0
-295 258 0
-295 278 0
-295 -259 0
-295 -279 0
296 -259 -279 260 280 0
-296 259 0
-296 279 0
-296 -260 0
-296 -280 0
-20 293 294 295 296 0
20 -293 0
20 -294 0
20 -295 0
20 -296 0
