p cnf 180 631
-12 0
-13 0
-14 0
-15 0
-16 0
-17 0
-2 18 0
-1 18 0
1 2 -18 0
-1 -2 19 0
1 -19 0
-12 19 0
12 2 -19 0
-12 -2 20 0
12 -20 0
-13 20 0
13 2 -20 0
-13 -2 21 0
13 -21 0
-14 21 0
14 2 -21 0
-14 -2 22 0
14 -22 0
-15 22 0
15 2 -22 0
-15 -2 23 0
15 -23 0
-16 23 0
16 2 -23 0
-16 -2 24 0
16 -24 0
-17 24 0
17 2 -24 0
-3 25 0
-18 25 0
18 3 -25 0
-18 -3 26 0
18 -26 0
-19 26 0
19 3 -26 0
-19 -3 27 0
19 -27 0
-20 27 0
20 3 -27 0
-20 -3 28 0
20 -28 0
-21 28 0
21 3 -28 0
-21 -3 29 0
21 -29 0
-22 29 0
22 3 -29 0
-22 -3 30 0
22 -30 0
-23 30 0
23 3 -30 0
-23 -3 31 0
23 -31 0
-24 31 0
24 3 -31 0
-4 32 0
-25 32 0
25 4 -32 0
-25 -4 33 0
25 -33 0
-26 33 0
26 4 -33 0
-26 -4 34 0
26 -34 0
-27 34 0
27 4 -34 0
-27 -4 35 0
27 -35 0
-28 35 0
28 4 -35 0
-28 -4 36 0
28 -36 0
-29 36 0
29 4 -36 0
-29 -4 37 0
29 -37 0
-30 37 0
30 4 -37 0
-30 -4 38 0
30 -38 0
-31 38 0
31 4 -38 0
-5 39 0
-32 39 0
32 5 -39 0
-32 -5 40 0
32 -40 0
-33 40 0
33 5 -40 0
-33 -5 41 0
33 -41 0
-34 41 0
34 5 -41 0
-34 -5 42 0
34 -42 0
-35 42 0
35 5 -42 0
-35 -5 43 0
35 -43 0
-36 43 0
36 5 -43 0
-36 -5 44 0
36 -44 0
-37 44 0
37 5 -44 0
-37 -5 45 0
37 -45 0
-38 45 0
38 5 -45 0
-6 46 0
-39 46 0
39 6 -46 0
-39 -6 47 0
39 -47 0
-40 47 0
40 6 -47 0
-40 -6 48 0
40 -48 0
-41 48 0
41 6 -48 0
-41 -6 49 0
41 -49 0
-42 49 0
42 6 -49 0
-42 -6 50 0
42 -50 0
-43 50 0
43 6 -50 0
-43 -6 51 0
43 -51 0
-44 51 0
44 6 -51 0
-44 -6 52 0
44 -52 0
-45 52 0
45 6 -52 0
-7 53 0
-46 53 0
46 7 -53 0
-46 -7 54 0
46 -54 0
-47 54 0
47 7 -54 0
-47 -7 55 0
47 -55 0
-48 55 0
48 7 -55 0
-48 -7 56 0
48 -56 0
-49 56 0
49 7 -56 0
-49 -7 57 0
49 -57 0
-50 57 0
50 7 -57 0
-50 -7 58 0
50 -58 0
-51 58 0
51 7 -58 0
-51 -7 59 0
51 -59 0
-52 59 0
52 7 -59 0
-8 60 0
-53 60 0
53 8 -60 0
-53 -8 61 0
53 -61 0
-54 61 0
54 8 -61 0
-54 -8 62 0
54 -62 0
-55 62 0
55 8 -62 0
-55 -8 63 0
55 -63 0
-56 63 0
56 8 -63 0
-56 -8 64 0
56 -64 0
-57 64 0
57 8 -64 0
-57 -8 65 0
57 -65 0
-58 65 0
58 8 -65 0
-58 -8 66 0
58 -66 0
-59 66 0
59 8 -66 0
-9 67 0
-60 67 0
60 9 -67 0
-60 -9 68 0
60 -68 0
-61 68 0
61 9 -68 0
-61 -9 69 0
61 -69 0
-62 69 0
62 9 -69 0
-62 -9 70 0
62 -70 0
-63 70 0
63 9 -70 0
-63 -9 71 0
63 -71 0
-64 71 0
64 9 -71 0
-64 -9 72 0
64 -72 0
-65 72 0
65 9 -72 0
-65 -9 73 0
65 -73 0
-66 73 0
66 9 -73 0
-10 74 0
-67 74 0
67 10 -74 0
-67 -10 75 0
67 -75 0
-68 75 0
68 10 -75 0
-68 -10 76 0
68 -76 0
-69 76 0
69 10 -76 0
-69 -10 77 0
69 -77 0
-70 77 0
70 10 -77 0
-70 -10 78 0
70 -78 0
-71 78 0
71 10 -78 0
-71 -10 79 0
71 -79 0
-72 79 0
72 10 -79 0
-72 -10 80 0
72 -80 0
-73 80 0
73 10 -80 0
80 0
81 -2 -5 0
-81 2 0
-81 5 0
82 -3 -6 0
-82 3 0
-82 6 0
83 -4 -7 0
-83 4 0
-83 7 0
84 -1 -5 0
-84 1 0
-84 5 0
85 -3 -8 0
-85 3 0
-85 8 0
86 -4 -9 0
-86 4 0
-86 9 0
87 -1 -6 0
-87 1 0
-87 6 0
88 -2 -8 0
-88 2 0
-88 8 0
89 -4 -10 0
-89 4 0
-89 10 0
90 -1 -7 0
-90 1 0
-90 7 0
91 -2 -9 0
-91 2 0
-91 9 0
92 -3 -10 0
-92 3 0
-92 10 0
93 -1 -2 0
-93 1 0
-93 2 0
94 -6 -8 0
-94 6 0
-94 8 0
95 -7 -9 0
-95 7 0
-95 9 0
96 -1 -3 0
-96 1 0
-96 3 0
97 -5 -8 0
-97 5 0
-97 8 0
98 -7 -10 0
-98 7 0
-98 10 0
99 -1 -4 0
-99 1 0
-99 4 0
100 -5 -9 0
-100 5 0
-100 9 0
101 -6 -10 0
-101 6 0
-101 10 0
102 -2 -3 0
-102 2 0
-102 3 0
103 -5 -6 0
-103 5 0
-103 6 0
104 -9 -10 0
-104 9 0
-104 10 0
105 -2 -4 0
-105 2 0
-105 4 0
106 -5 -7 0
-106 5 0
-106 7 0
107 -8 -10 0
-107 8 0
-107 10 0
108 -3 -4 0
-108 3 0
-108 4 0
109 -6 -7 0
-109 6 0
-109 7 0
110 -8 -9 0
-110 8 0
-110 9 0
-81 -111 0
-82 -111 0
-83 -111 0
-84 -112 0
-85 -112 0
-86 -112 0
-87 -113 0
-88 -113 0
-89 -113 0
-90 -114 0
-91 -114 0
-92 -114 0
-93 -115 0
-94 -115 0
-95 -115 0
-96 -116 0
-97 -116 0
-98 -116 0
-99 -117 0
-100 -117 0
-101 -117 0
-102 -118 0
-103 -118 0
-104 -118 0
-105 -119 0
-106 -119 0
-107 -119 0
-108 -120 0
-109 -120 0
-110 -120 0
1 81 82 83 0
2 84 85 86 0
3 87 88 89 0
4 90 91 92 0
5 93 94 95 0
6 96 97 98 0
7 99 100 101 0
8 102 103 104 0
9 105 106 107 0
10 108 109 110 0
2 -121 0
-5 -121 0
-94 -121 0
-95 -121 0
5 -122 0
-2 -122 0
-85 -122 0
-86 -122 0
3 -123 0
-6 -123 0
-97 -123 0
-98 -123 0
6 -124 0
-3 -124 0
-88 -124 0
-89 -124 0
4 -125 0
-7 -125 0
-100 -125 0
-101 -125 0
7 -126 0
-4 -126 0
-91 -126 0
-92 -126 0
-1 111 121 122 123 124 125 126 0
1 -127 0
-5 -127 0
-94 -127 0
-95 -127 0
5 -128 0
-1 -128 0
-82 -128 0
-83 -128 0
3 -129 0
-8 -129 0
-103 -129 0
-104 -129 0
8 -130 0
-3 -130 0
-87 -130 0
-89 -130 0
4 -131 0
-9 -131 0
-106 -131 0
-107 -131 0
9 -132 0
-4 -132 0
-90 -132 0
-92 -132 0
-2 112 127 128 129 130 131 132 0
1 -133 0
-6 -133 0
-97 -133 0
-98 -133 0
6 -134 0
-1 -134 0
-81 -134 0
-83 -134 0
2 -135 0
-8 -135 0
-103 -135 0
-104 -135 0
8 -136 0
-2 -136 0
-84 -136 0
-86 -136 0
4 -137 0
-10 -137 0
-109 -137 0
-110 -137 0
10 -138 0
-4 -138 0
-90 -138 0
-91 -138 0
-3 113 133 134 135 136 137 138 0
1 -139 0
-7 -139 0
-100 -139 0
-101 -139 0
7 -140 0
-1 -140 0
-81 -140 0
-82 -140 0
2 -141 0
-9 -141 0
-106 -141 0
-107 -141 0
9 -142 0
-2 -142 0
-84 -142 0
-85 -142 0
3 -143 0
-10 -143 0
-109 -143 0
-110 -143 0
10 -144 0
-3 -144 0
-87 -144 0
-88 -144 0
-4 114 139 140 141 142 143 144 0
1 -145 0
-2 -145 0
-85 -145 0
-86 -145 0
2 -146 0
-1 -146 0
-82 -146 0
-83 -146 0
6 -147 0
-8 -147 0
-102 -147 0
-104 -147 0
8 -148 0
-6 -148 0
-96 -148 0
-98 -148 0
7 -149 0
-9 -149 0
-105 -149 0
-107 -149 0
9 -150 0
-7 -150 0
-99 -150 0
-101 -150 0
-5 115 145 146 147 148 149 150 0
1 -151 0
-3 -151 0
-88 -151 0
-89 -151 0
3 -152 0
-1 -152 0
-81 -152 0
-83 -152 0
5 -153 0
-8 -153 0
-102 -153 0
-104 -153 0
8 -154 0
-5 -154 0
-93 -154 0
-95 -154 0
7 -155 0
-10 -155 0
-108 -155 0
-110 -155 0
10 -156 0
-7 -156 0
-99 -156 0
-100 -156 0
-6 116 151 152 153 154 155 156 0
1 -157 0
-4 -157 0
-91 -157 0
-92 -157 0
4 -158 0
-1 -158 0
-81 -158 0
-82 -158 0
5 -159 0
-9 -159 0
-105 -159 0
-107 -159 0
9 -160 0
-5 -160 0
-93 -160 0
-94 -160 0
6 -161 0
-10 -161 0
-108 -161 0
-110 -161 0
10 -162 0
-6 -162 0
-96 -162 0
-97 -162 0
-7 117 157 158 159 160 161 162 0
2 -163 0
-3 -163 0
-87 -163 0
-89 -163 0
3 -164 0
-2 -164 0
-84 -164 0
-86 -164 0
5 -165 0
-6 -165 0
-96 -165 0
-98 -165 0
6 -166 0
-5 -166 0
-93 -166 0
-95 -166 0
9 -167 0
-10 -167 0
-108 -167 0
-109 -167 0
10 -168 0
-9 -168 0
-105 -168 0
-106 -168 0
-8 118 163 164 165 166 167 168 0
2 -169 0
-4 -169 0
-90 -169 0
-92 -169 0
4 -170 0
-2 -170 0
-84 -170 0
-85 -170 0
5 -171 0
-7 -171 0
-99 -171 0
-101 -171 0
7 -172 0
-5 -172 0
-93 -172 0
-94 -172 0
8 -173 0
-10 -173 0
-108 -173 0
-109 -173 0
10 -174 0
-8 -174 0
-102 -174 0
-103 -174 0
-9 119 169 170 171 172 173 174 0
3 -175 0
-4 -175 0
-90 -175 0
-91 -175 0
4 -176 0
-3 -176 0
-87 -176 0
-88 -176 0
6 -177 0
-7 -177 0
-99 -177 0
-100 -177 0
7 -178 0
-6 -178 0
-96 -178 0
-97 -178 0
8 -179 0
-9 -179 0
-105 -179 0
-106 -179 0
9 -180 0
-8 -180 0
-102 -180 0
-103 -180 0
-10 120 175 176 177 178 179 180 0
-1 5 0
