p cnf 170 602
-12 0
-13 0
-14 0
-15 0
-16 0
-2 17 0
-1 17 0
1 2 -17 0
-1 -2 18 0
1 -18 0
-12 18 0
12 2 -18 0
-12 -2 19 0
12 -19 0
-13 19 0
13 2 -19 0
-13 -2 20 0
13 -20 0
-14 20 0
14 2 -20 0
-14 -2 21 0
14 -21 0
-15 21 0
15 2 -21 0
-15 -2 22 0
15 -22 0
-16 22 0
16 2 -22 0
-3 23 0
-17 23 0
17 3 -23 0
-17 -3 24 0
17 -24 0
-18 24 0
18 3 -24 0
-18 -3 25 0
18 -25 0
-19 25 0
19 3 -25 0
-19 -3 26 0
19 -26 0
-20 26 0
20 3 -26 0
-20 -3 27 0
20 -27 0
-21 27 0
21 3 -27 0
-21 -3 28 0
21 -28 0
-22 28 0
22 3 -28 0
-4 29 0
-23 29 0
23 4 -29 0
-23 -4 30 0
23 -30 0
-24 30 0
24 4 -30 0
-24 -4 31 0
24 -31 0
-25 31 0
25 4 -31 0
-25 -4 32 0
25 -32 0
-26 32 0
26 4 -32 0
-26 -4 33 0
26 -33 0
-27 33 0
27 4 -33 0
-27 -4 34 0
27 -34 0
-28 34 0
28 4 -34 0
-5 35 0
-29 35 0
29 5 -35 0
-29 -5 36 0
29 -36 0
-30 36 0
30 5 -36 0
-30 -5 37 0
30 -37 0
-31 37 0
31 5 -37 0
-31 -5 38 0
31 -38 0
-32 38 0
32 5 -38 0
-32 -5 39 0
32 -39 0
-33 39 0
33 5 -39 0
-33 -5 40 0
33 -40 0
-34 40 0
34 5 -40 0
-6 41 0
-35 41 0
35 6 -41 0
-35 -6 42 0
35 -42 0
-36 42 0
36 6 -42 0
-36 -6 43 0
36 -43 0
-37 43 0
37 6 -43 0
-37 -6 44 0
37 -44 0
-38 44 0
38 6 -44 0
-38 -6 45 0
38 -45 0
-39 45 0
39 6 -45 0
-39 -6 46 0
39 -46 0
-40 46 0
40 6 -46 0
-7 47 0
-41 47 0
41 7 -47 0
-41 -7 48 0
41 -48 0
-42 48 0
42 7 -48 0
-42 -7 49 0
42 -49 0
-43 49 0
43 7 -49 0
-43 -7 50 0
43 -50 0
-44 50 0
44 7 -50 0
-44 -7 51 0
44 -51 0
-45 51 0
45 7 -51 0
-45 -7 52 0
45 -52 0
-46 52 0
46 7 -52 0
-8 53 0
-47 53 0
47 8 -53 0
-47 -8 54 0
47 -54 0
-48 54 0
48 8 -54 0
-48 -8 55 0
48 -55 0
-49 55 0
49 8 -55 0
-49 -8 56 0
49 -56 0
-50 56 0
50 8 -56 0
-50 -8 57 0
50 -57 0
-51 57 0
51 8 -57 0
-51 -8 58 0
51 -58 0
-52 58 0
52 8 -58 0
-9 59 0
-53 59 0
53 9 -59 0
-53 -9 60 0
53 -60 0
-54 60 0
54 9 -60 0
-54 -9 61 0
54 -61 0
-55 61 0
55 9 -61 0
-55 -9 62 0
55 -62 0
-56 62 0
56 9 -62 0
-56 -9 63 0
56 -63 0
-57 63 0
57 9 -63 0
-57 -9 64 0
57 -64 0
-58 64 0
58 9 -64 0
-10 65 0
-59 65 0
59 10 -65 0
-59 -10 66 0
59 -66 0
-60 66 0
60 10 -66 0
-60 -10 67 0
60 -67 0
-61 67 0
61 10 -67 0
-61 -10 68 0
61 -68 0
-62 68 0
62 10 -68 0
-62 -10 69 0
62 -69 0
-63 69 0
63 10 -69 0
-63 -10 70 0
63 -70 0
-64 70 0
64 10 -70 0
-16 -2 0
-22 -3 0
-28 -4 0
-34 -5 0
-40 -6 0
-46 -7 0
-52 -8 0
-58 -9 0
-64 -10 0
70 0
71 -2 -5 0
-71 2 0
-71 5 0
72 -3 -6 0
-72 3 0
-72 6 0
73 -4 -7 0
-73 4 0
-73 7 0
74 -1 -5 0
-74 1 0
-74 5 0
75 -3 -8 0
-75 3 0
-75 8 0
76 -4 -9 0
-76 4 0
-76 9 0
77 -1 -6 0
-77 1 0
-77 6 0
78 -2 -8 0
-78 2 0
-78 8 0
79 -4 -10 0
-79 4 0
-79 10 0
80 -1 -7 0
-80 1 0
-80 7 0
81 -2 -9 0
-81 2 0
-81 9 0
82 -3 -10 0
-82 3 0
-82 10 0
83 -1 -2 0
-83 1 0
-83 2 0
84 -6 -8 0
-84 6 0
-84 8 0
85 -7 -9 0
-85 7 0
-85 9 0
86 -1 -3 0
-86 1 0
-86 3 0
87 -5 -8 0
-87 5 0
-87 8 0
88 -7 -10 0
-88 7 0
-88 10 0
89 -1 -4 0
-89 1 0
-89 4 0
90 -5 -9 0
-90 5 0
-90 9 0
91 -6 -10 0
-91 6 0
-91 10 0
92 -2 -3 0
-92 2 0
-92 3 0
93 -5 -6 0
-93 5 0
-93 6 0
94 -9 -10 0
-94 9 0
-94 10 0
95 -2 -4 0
-95 2 0
-95 4 0
96 -5 -7 0
-96 5 0
-96 7 0
97 -8 -10 0
-97 8 0
-97 10 0
98 -3 -4 0
-98 3 0
-98 4 0
99 -6 -7 0
-99 6 0
-99 7 0
100 -8 -9 0
-100 8 0
-100 9 0
-71 -101 0
-72 -101 0
-73 -101 0
-74 -102 0
-75 -102 0
-76 -102 0
-77 -103 0
-78 -103 0
-79 -103 0
-80 -104 0
-81 -104 0
-82 -104 0
-83 -105 0
-84 -105 0
-85 -105 0
-86 -106 0
-87 -106 0
-88 -106 0
-89 -107 0
-90 -107 0
-91 -107 0
-92 -108 0
-93 -108 0
-94 -108 0
-95 -109 0
-96 -109 0
-97 -109 0
-98 -110 0
-99 -110 0
-100 -110 0
1 71 72 73 0
2 74 75 76 0
3 77 78 79 0
4 80 81 82 0
5 83 84 85 0
6 86 87 88 0
7 89 90 91 0
8 92 93 94 0
9 95 96 97 0
10 98 99 100 0
2 -111 0
-5 -111 0
-84 -111 0
-85 -111 0
5 -112 0
-2 -112 0
-75 -112 0
-76 -112 0
3 -113 0
-6 -113 0
-87 -113 0
-88 -113 0
6 -114 0
-3 -114 0
-78 -114 0
-79 -114 0
4 -115 0
-7 -115 0
-90 -115 0
-91 -115 0
7 -116 0
-4 -116 0
-81 -116 0
-82 -116 0
-1 101 111 112 113 114 115 116 0
1 -117 0
-5 -117 0
-84 -117 0
-85 -117 0
5 -118 0
-1 -118 0
-72 -118 0
-73 -118 0
3 -119 0
-8 -119 0
-93 -119 0
-94 -119 0
8 -120 0
-3 -120 0
-77 -120 0
-79 -120 0
4 -121 0
-9 -121 0
-96 -121 0
-97 -121 0
9 -122 0
-4 -122 0
-80 -122 0
-82 -122 0
-2 102 117 118 119 120 121 122 0
1 -123 0
-6 -123 0
-87 -123 0
-88 -123 0
6 -124 0
-1 -124 0
-71 -124 0
-73 -124 0
2 -125 0
-8 -125 0
-93 -125 0
-94 -125 0
8 -126 0
-2 -126 0
-74 -126 0
-76 -126 0
4 -127 0
-10 -127 0
-99 -127 0
-100 -127 0
10 -128 0
-4 -128 0
-80 -128 0
-81 -128 0
-3 103 123 124 125 126 127 128 0
1 -129 0
-7 -129 0
-90 -129 0
-91 -129 0
7 -130 0
-1 -130 0
-71 -130 0
-72 -130 0
2 -131 0
-9 -131 0
-96 -131 0
-97 -131 0
9 -132 0
-2 -132 0
-74 -132 0
-75 -132 0
3 -133 0
-10 -133 0
-99 -133 0
-100 -133 0
10 -134 0
-3 -134 0
-77 -134 0
-78 -134 0
-4 104 129 130 131 132 133 134 0
1 -135 0
-2 -135 0
-75 -135 0
-76 -135 0
2 -136 0
-1 -136 0
-72 -136 0
-73 -136 0
6 -137 0
-8 -137 0
-92 -137 0
-94 -137 0
8 -138 0
-6 -138 0
-86 -138 0
-88 -138 0
7 -139 0
-9 -139 0
-95 -139 0
-97 -139 0
9 -140 0
-7 -140 0
-89 -140 0
-91 -140 0
-5 105 135 136 137 138 139 140 0
1 -141 0
-3 -141 0
-78 -141 0
-79 -141 0
3 -142 0
-1 -142 0
-71 -142 0
-73 -142 0
5 -143 0
-8 -143 0
-92 -143 0
-94 -143 0
8 -144 0
-5 -144 0
-83 -144 0
-85 -144 0
7 -145 0
-10 -145 0
-98 -145 0
-100 -145 0
10 -146 0
-7 -146 0
-89 -146 0
-90 -146 0
-6 106 141 142 143 144 145 146 0
1 -147 0
-4 -147 0
-81 -147 0
-82 -147 0
4 -148 0
-1 -148 0
-71 -148 0
-72 -148 0
5 -149 0
-9 -149 0
-95 -149 0
-97 -149 0
9 -150 0
-5 -150 0
-83 -150 0
-84 -150 0
6 -151 0
-10 -151 0
-98 -151 0
-100 -151 0
10 -152 0
-6 -152 0
-86 -152 0
-87 -152 0
-7 107 147 148 149 150 151 152 0
2 -153 0
-3 -153 0
-77 -153 0
-79 -153 0
3 -154 0
-2 -154 0
-74 -154 0
-76 -154 0
5 -155 0
-6 -155 0
-86 -155 0
-88 -155 0
6 -156 0
-5 -156 0
-83 -156 0
-85 -156 0
9 -157 0
-10 -157 0
-98 -157 0
-99 -157 0
10 -158 0
-9 -158 0
-95 -158 0
-96 -158 0
-8 108 153 154 155 156 157 158 0
2 -159 0
-4 -159 0
-80 -159 0
-82 -159 0
4 -160 0
-2 -160 0
-74 -160 0
-75 -160 0
5 -161 0
-7 -161 0
-89 -161 0
-91 -161 0
7 -162 0
-5 -162 0
-83 -162 0
-84 -162 0
8 -163 0
-10 -163 0
-98 -163 0
-99 -163 0
10 -164 0
-8 -164 0
-92 -164 0
-93 -164 0
-9 109 159 160 161 162 163 164 0
3 -165 0
-4 -165 0
-80 -165 0
-81 -165 0
4 -166 0
-3 -166 0
-77 -166 0
-78 -166 0
6 -167 0
-7 -167 0
-89 -167 0
-90 -167 0
7 -168 0
-6 -168 0
-86 -168 0
-87 -168 0
8 -169 0
-9 -169 0
-95 -169 0
-96 -169 0
9 -170 0
-8 -170 0
-92 -170 0
-93 -170 0
-10 110 165 166 167 168 169 170 0
