0 1 3
0 2 2
0 3 4
0 4 0
0 5 0
0 6 1
0 7 0
0 8 1
0 9 1
0 10 2
0 11 1
0 12 2
0 13 0
0 14 4
0 15 0
0 16 3
0 17 4
0 18 4
0 19 2
0 20 4
0 21 1
0 22 1
0 23 3
0 24 3
0 25 2
1 2 0
1 3 1
1 4 4
1 5 2
1 6 4
1 7 2
1 8 0
1 9 0
1 10 4
1 11 0
1 12 4
1 13 1
1 14 2
1 15 0
1 16 3
1 17 1
1 18 0
1 19 0
1 20 1
1 21 4
1 22 2
1 23 3
1 24 3
1 25 1
2 3 1
2 4 0
2 5 4
2 6 1
2 7 1
2 8 4
2 9 0
2 10 2
2 11 0
2 12 2
2 13 4
2 14 3
2 15 3
2 16 3
2 17 1
2 18 0
2 19 2
2 20 3
2 21 3
2 22 4
2 23 1
2 24 4
2 25 2
3 4 0
3 5 0
3 6 2
3 7 3
3 8 3
3 9 3
3 10 3
3 11 2
3 12 3
3 13 1
3 14 4
3 15 2
3 16 4
3 17 4
3 18 4
3 19 0
3 20 1
3 21 0
3 22 4
3 23 0
3 24 2
3 25 1
4 5 3
4 6 4
4 7 0
4 8 2
4 9 1
4 10 4
4 11 3
4 12 4
4 13 0
4 14 1
4 15 0
4 16 0
4 17 3
4 18 2
4 19 1
4 20 2
4 21 4
4 22 2
4 23 2
4 24 1
4 25 3
5 6 2
5 7 2
5 8 4
5 9 4
5 10 1
5 11 3
5 12 1
5 13 4
5 14 2
5 15 1
5 16 1
5 17 3
5 18 1
5 19 0
5 20 4
5 21 0
5 22 2
5 23 0
5 24 4
5 25 3
6 7 1
6 8 0
6 9 0
6 10 4
6 11 2
6 12 4
6 13 3
6 14 0
6 15 2
6 16 0
6 17 1
6 18 3
6 19 3
6 20 2
6 21 4
6 22 3
6 23 1
6 24 2
6 25 0
7 8 3
7 9 3
7 10 3
7 11 4
7 12 3
7 13 0
7 14 2
7 15 0
7 16 4
7 17 1
7 18 0
7 19 4
7 20 4
7 21 0
7 22 2
7 23 1
7 24 2
7 25 4
8 9 3
8 10 3
8 11 1
8 12 3
8 13 4
8 14 0
8 15 2
8 16 0
8 17 2
8 18 2
8 19 1
8 20 2
8 21 1
8 22 1
8 23 2
8 24 4
8 25 0
9 10 3
9 11 0
9 12 3
9 13 2
9 14 1
9 15 4
9 16 2
9 17 2
9 18 0
9 19 1
9 20 2
9 21 2
9 22 4
9 23 4
9 24 1
9 25 4
10 11 4
10 12 3
10 13 2
10 14 4
10 15 1
10 16 1
10 17 0
10 18 1
10 19 2
10 20 0
10 21 4
10 22 0
10 23 1
10 24 0
10 25 2
11 12 1
11 13 0
11 14 0
11 15 2
11 16 4
11 17 3
11 18 0
11 19 4
11 20 4
11 21 1
11 22 1
11 23 0
11 24 2
11 25 3
12 13 1
12 14 2
12 15 1
12 16 1
12 17 0
12 18 1
12 19 2
12 20 0
12 21 4
12 22 0
12 23 2
12 24 0
12 25 2
13 14 0
13 15 0
13 16 2
13 17 2
13 18 3
13 19 3
13 20 1
13 21 2
13 22 3
13 23 4
13 24 4
13 25 1
14 15 3
14 16 0
14 17 4
14 18 4
14 19 1
14 20 3
14 21 3
14 22 2
14 23 0
14 24 1
14 25 0
15 16 1
15 17 4
15 18 1
15 19 0
15 20 3
15 21 3
15 22 4
15 23 4
15 24 2
15 25 4
16 17 2
16 18 1
16 19 4
16 20 4
16 21 2
16 22 2
16 23 3
16 24 3
16 25 0
17 18 4
17 19 1
17 20 0
17 21 2
17 22 0
17 23 1
17 24 0
17 25 3
18 19 3
18 20 2
18 21 0
18 22 3
18 23 2
18 24 4
18 25 0
19 20 4
19 21 0
19 22 3
19 23 0
19 24 1
19 25 2
20 21 3
20 22 0
20 23 2
20 24 0
20 25 1
21 22 1
21 23 0
21 24 1
21 25 1
22 23 4
22 24 0
22 25 4
23 24 3
23 25 4
24 25 1
