c D2C exact encoding; edge variables are the first C(n,2) variables
c n 5 min_edges 5
p cnf 152 634
-11 2 0
-11 5 0
-5 -2 11 0
-12 3 0
-12 6 0
-6 -3 12 0
-13 4 0
-13 7 0
-7 -4 13 0
-14 1 0
-14 5 0
-5 -1 14 0
-15 3 0
-15 8 0
-8 -3 15 0
-16 4 0
-16 9 0
-9 -4 16 0
-17 1 0
-17 6 0
-6 -1 17 0
-18 2 0
-18 8 0
-8 -2 18 0
-19 4 0
-19 10 0
-10 -4 19 0
-20 1 0
-20 7 0
-7 -1 20 0
-21 2 0
-21 9 0
-9 -2 21 0
-22 3 0
-22 10 0
-10 -3 22 0
-23 1 0
-23 2 0
-2 -1 23 0
-24 6 0
-24 8 0
-8 -6 24 0
-25 7 0
-25 9 0
-9 -7 25 0
-26 1 0
-26 3 0
-3 -1 26 0
-27 5 0
-27 8 0
-8 -5 27 0
-28 7 0
-28 10 0
-10 -7 28 0
-29 1 0
-29 4 0
-4 -1 29 0
-30 5 0
-30 9 0
-9 -5 30 0
-31 6 0
-31 10 0
-10 -6 31 0
-32 2 0
-32 3 0
-3 -2 32 0
-33 5 0
-33 6 0
-6 -5 33 0
-34 9 0
-34 10 0
-10 -9 34 0
-35 2 0
-35 4 0
-4 -2 35 0
-36 5 0
-36 7 0
-7 -5 36 0
-37 8 0
-37 10 0
-10 -8 37 0
-38 3 0
-38 4 0
-4 -3 38 0
-39 6 0
-39 7 0
-7 -6 39 0
-40 8 0
-40 9 0
-9 -8 40 0
1 11 12 13 0
2 14 15 16 0
3 17 18 19 0
4 20 21 22 0
5 23 24 25 0
6 26 27 28 0
7 29 30 31 0
8 32 33 34 0
9 35 36 37 0
10 38 39 40 0
-10 -9 -8 -7 -6 -5 -4 -3 -2 -1 0
-41 1 0
-41 -11 0
-41 -12 0
-41 -13 0
-1 11 12 13 41 0
-42 1 0
-42 -2 0
-42 -15 0
-42 -16 0
-1 2 15 16 42 0
-43 1 0
-43 -3 0
-43 -18 0
-43 -19 0
-1 3 18 19 43 0
-44 1 0
-44 -4 0
-44 -21 0
-44 -22 0
-1 4 21 22 44 0
-45 1 0
-45 -5 0
-45 -24 0
-45 -25 0
-1 5 24 25 45 0
-46 1 0
-46 -6 0
-46 -27 0
-46 -28 0
-1 6 27 28 46 0
-47 1 0
-47 -7 0
-47 -30 0
-47 -31 0
-1 7 30 31 47 0
-1 41 42 43 44 45 46 47 0
-48 2 0
-48 -1 0
-48 -12 0
-48 -13 0
-2 1 12 13 48 0
-49 2 0
-49 -14 0
-49 -15 0
-49 -16 0
-2 14 15 16 49 0
-50 2 0
-50 -3 0
-50 -17 0
-50 -19 0
-2 3 17 19 50 0
-51 2 0
-51 -4 0
-51 -20 0
-51 -22 0
-2 4 20 22 51 0
-52 2 0
-52 -5 0
-52 -24 0
-52 -25 0
-2 5 24 25 52 0
-53 2 0
-53 -8 0
-53 -33 0
-53 -34 0
-2 8 33 34 53 0
-54 2 0
-54 -9 0
-54 -36 0
-54 -37 0
-2 9 36 37 54 0
-2 48 49 50 51 52 53 54 0
-55 3 0
-55 -1 0
-55 -11 0
-55 -13 0
-3 1 11 13 55 0
-56 3 0
-56 -2 0
-56 -14 0
-56 -16 0
-3 2 14 16 56 0
-57 3 0
-57 -17 0
-57 -18 0
-57 -19 0
-3 17 18 19 57 0
-58 3 0
-58 -4 0
-58 -20 0
-58 -21 0
-3 4 20 21 58 0
-59 3 0
-59 -6 0
-59 -27 0
-59 -28 0
-3 6 27 28 59 0
-60 3 0
-60 -8 0
-60 -33 0
-60 -34 0
-3 8 33 34 60 0
-61 3 0
-61 -10 0
-61 -39 0
-61 -40 0
-3 10 39 40 61 0
-3 55 56 57 58 59 60 61 0
-62 4 0
-62 -1 0
-62 -11 0
-62 -12 0
-4 1 11 12 62 0
-63 4 0
-63 -2 0
-63 -14 0
-63 -15 0
-4 2 14 15 63 0
-64 4 0
-64 -3 0
-64 -17 0
-64 -18 0
-4 3 17 18 64 0
-65 4 0
-65 -20 0
-65 -21 0
-65 -22 0
-4 20 21 22 65 0
-66 4 0
-66 -7 0
-66 -30 0
-66 -31 0
-4 7 30 31 66 0
-67 4 0
-67 -9 0
-67 -36 0
-67 -37 0
-4 9 36 37 67 0
-68 4 0
-68 -10 0
-68 -39 0
-68 -40 0
-4 10 39 40 68 0
-4 62 63 64 65 66 67 68 0
-69 5 0
-69 -1 0
-69 -12 0
-69 -13 0
-5 1 12 13 69 0
-70 5 0
-70 -2 0
-70 -15 0
-70 -16 0
-5 2 15 16 70 0
-71 5 0
-71 -23 0
-71 -24 0
-71 -25 0
-5 23 24 25 71 0
-72 5 0
-72 -6 0
-72 -26 0
-72 -28 0
-5 6 26 28 72 0
-73 5 0
-73 -7 0
-73 -29 0
-73 -31 0
-5 7 29 31 73 0
-74 5 0
-74 -8 0
-74 -32 0
-74 -34 0
-5 8 32 34 74 0
-75 5 0
-75 -9 0
-75 -35 0
-75 -37 0
-5 9 35 37 75 0
-5 69 70 71 72 73 74 75 0
-76 6 0
-76 -1 0
-76 -11 0
-76 -13 0
-6 1 11 13 76 0
-77 6 0
-77 -3 0
-77 -18 0
-77 -19 0
-6 3 18 19 77 0
-78 6 0
-78 -5 0
-78 -23 0
-78 -25 0
-6 5 23 25 78 0
-79 6 0
-79 -26 0
-79 -27 0
-79 -28 0
-6 26 27 28 79 0
-80 6 0
-80 -7 0
-80 -29 0
-80 -30 0
-6 7 29 30 80 0
-81 6 0
-81 -8 0
-81 -32 0
-81 -34 0
-6 8 32 34 81 0
-82 6 0
-82 -10 0
-82 -38 0
-82 -40 0
-6 10 38 40 82 0
-6 76 77 78 79 80 81 82 0
-83 7 0
-83 -1 0
-83 -11 0
-83 -12 0
-7 1 11 12 83 0
-84 7 0
-84 -4 0
-84 -21 0
-84 -22 0
-7 4 21 22 84 0
-85 7 0
-85 -5 0
-85 -23 0
-85 -24 0
-7 5 23 24 85 0
-86 7 0
-86 -6 0
-86 -26 0
-86 -27 0
-7 6 26 27 86 0
-87 7 0
-87 -29 0
-87 -30 0
-87 -31 0
-7 29 30 31 87 0
-88 7 0
-88 -9 0
-88 -35 0
-88 -37 0
-7 9 35 37 88 0
-89 7 0
-89 -10 0
-89 -38 0
-89 -40 0
-7 10 38 40 89 0
-7 83 84 85 86 87 88 89 0
-90 8 0
-90 -2 0
-90 -14 0
-90 -16 0
-8 2 14 16 90 0
-91 8 0
-91 -3 0
-91 -17 0
-91 -19 0
-8 3 17 19 91 0
-92 8 0
-92 -5 0
-92 -23 0
-92 -25 0
-8 5 23 25 92 0
-93 8 0
-93 -6 0
-93 -26 0
-93 -28 0
-8 6 26 28 93 0
-94 8 0
-94 -32 0
-94 -33 0
-94 -34 0
-8 32 33 34 94 0
-95 8 0
-95 -9 0
-95 -35 0
-95 -36 0
-8 9 35 36 95 0
-96 8 0
-96 -10 0
-96 -38 0
-96 -39 0
-8 10 38 39 96 0
-8 90 91 92 93 94 95 96 0
-97 9 0
-97 -2 0
-97 -14 0
-97 -15 0
-9 2 14 15 97 0
-98 9 0
-98 -4 0
-98 -20 0
-98 -22 0
-9 4 20 22 98 0
-99 9 0
-99 -5 0
-99 -23 0
-99 -24 0
-9 5 23 24 99 0
-100 9 0
-100 -7 0
-100 -29 0
-100 -31 0
-9 7 29 31 100 0
-101 9 0
-101 -8 0
-101 -32 0
-101 -33 0
-9 8 32 33 101 0
-102 9 0
-102 -35 0
-102 -36 0
-102 -37 0
-9 35 36 37 102 0
-103 9 0
-103 -10 0
-103 -38 0
-103 -39 0
-9 10 38 39 103 0
-9 97 98 99 100 101 102 103 0
-104 10 0
-104 -3 0
-104 -17 0
-104 -18 0
-10 3 17 18 104 0
-105 10 0
-105 -4 0
-105 -20 0
-105 -21 0
-10 4 20 21 105 0
-106 10 0
-106 -6 0
-106 -26 0
-106 -27 0
-10 6 26 27 106 0
-107 10 0
-107 -7 0
-107 -29 0
-107 -30 0
-10 7 29 30 107 0
-108 10 0
-108 -8 0
-108 -32 0
-108 -33 0
-10 8 32 33 108 0
-109 10 0
-109 -9 0
-109 -35 0
-109 -36 0
-10 9 35 36 109 0
-110 10 0
-110 -38 0
-110 -39 0
-110 -40 0
-10 38 39 40 110 0
-10 104 105 106 107 108 109 110 0
111 0
-112 0
-112 113 0
-111 -1 113 0
-113 111 112 0
-113 1 112 0
-113 114 0
-111 -2 114 0
-114 111 113 0
-114 2 113 0
-112 115 0
-113 -2 115 0
-115 112 113 0
-115 2 112 0
-114 116 0
-111 -3 116 0
-116 111 114 0
-116 3 114 0
-115 117 0
-114 -3 117 0
-117 114 115 0
-117 3 115 0
-112 118 0
-115 -3 118 0
-118 112 115 0
-118 3 112 0
-116 119 0
-111 -4 119 0
-119 111 116 0
-119 4 116 0
-117 120 0
-116 -4 120 0
-120 116 117 0
-120 4 117 0
-118 121 0
-117 -4 121 0
-121 117 118 0
-121 4 118 0
-112 122 0
-118 -4 122 0
-122 112 118 0
-122 4 112 0
-119 123 0
-111 -5 123 0
-123 111 119 0
-123 5 119 0
-120 124 0
-119 -5 124 0
-124 119 120 0
-124 5 120 0
-121 125 0
-120 -5 125 0
-125 120 121 0
-125 5 121 0
-122 126 0
-121 -5 126 0
-126 121 122 0
-126 5 122 0
-112 127 0
-122 -5 127 0
-127 112 122 0
-127 5 112 0
-123 128 0
-111 -6 128 0
-128 111 123 0
-128 6 123 0
-124 129 0
-123 -6 129 0
-129 123 124 0
-129 6 124 0
-125 130 0
-124 -6 130 0
-130 124 125 0
-130 6 125 0
-126 131 0
-125 -6 131 0
-131 125 126 0
-131 6 126 0
-127 132 0
-126 -6 132 0
-132 126 127 0
-132 6 127 0
-128 133 0
-111 -7 133 0
-133 111 128 0
-133 7 128 0
-129 134 0
-128 -7 134 0
-134 128 129 0
-134 7 129 0
-130 135 0
-129 -7 135 0
-135 129 130 0
-135 7 130 0
-131 136 0
-130 -7 136 0
-136 130 131 0
-136 7 131 0
-132 137 0
-131 -7 137 0
-137 131 132 0
-137 7 132 0
-133 138 0
-111 -8 138 0
-138 111 133 0
-138 8 133 0
-134 139 0
-133 -8 139 0
-139 133 134 0
-139 8 134 0
-135 140 0
-134 -8 140 0
-140 134 135 0
-140 8 135 0
-136 141 0
-135 -8 141 0
-141 135 136 0
-141 8 136 0
-137 142 0
-136 -8 142 0
-142 136 137 0
-142 8 137 0
-138 143 0
-111 -9 143 0
-143 111 138 0
-143 9 138 0
-139 144 0
-138 -9 144 0
-144 138 139 0
-144 9 139 0
-140 145 0
-139 -9 145 0
-145 139 140 0
-145 9 140 0
-141 146 0
-140 -9 146 0
-146 140 141 0
-146 9 141 0
-142 147 0
-141 -9 147 0
-147 141 142 0
-147 9 142 0
-143 148 0
-111 -10 148 0
-148 111 143 0
-148 10 143 0
-144 149 0
-143 -10 149 0
-149 143 144 0
-149 10 144 0
-145 150 0
-144 -10 150 0
-150 144 145 0
-150 10 145 0
-146 151 0
-145 -10 151 0
-151 145 146 0
-151 10 146 0
-147 152 0
-146 -10 152 0
-152 146 147 0
-152 10 147 0
152 0
1 0
-2 0
-3 0
4 0
5 0
-6 0
-7 0
8 0
-9 0
10 0
