c D2C exact encoding; edge variables are the first C(n,2) variables
c n 6 min_edges 8
p cnf 304 1407
-16 2 0
-16 6 0
-6 -2 16 0
-17 3 0
-17 7 0
-7 -3 17 0
-18 4 0
-18 8 0
-8 -4 18 0
-19 5 0
-19 9 0
-9 -5 19 0
-20 1 0
-20 6 0
-6 -1 20 0
-21 3 0
-21 10 0
-10 -3 21 0
-22 4 0
-22 11 0
-11 -4 22 0
-23 5 0
-23 12 0
-12 -5 23 0
-24 1 0
-24 7 0
-7 -1 24 0
-25 2 0
-25 10 0
-10 -2 25 0
-26 4 0
-26 13 0
-13 -4 26 0
-27 5 0
-27 14 0
-14 -5 27 0
-28 1 0
-28 8 0
-8 -1 28 0
-29 2 0
-29 11 0
-11 -2 29 0
-30 3 0
-30 13 0
-13 -3 30 0
-31 5 0
-31 15 0
-15 -5 31 0
-32 1 0
-32 9 0
-9 -1 32 0
-33 2 0
-33 12 0
-12 -2 33 0
-34 3 0
-34 14 0
-14 -3 34 0
-35 4 0
-35 15 0
-15 -4 35 0
-36 1 0
-36 2 0
-2 -1 36 0
-37 7 0
-37 10 0
-10 -7 37 0
-38 8 0
-38 11 0
-11 -8 38 0
-39 9 0
-39 12 0
-12 -9 39 0
-40 1 0
-40 3 0
-3 -1 40 0
-41 6 0
-41 10 0
-10 -6 41 0
-42 8 0
-42 13 0
-13 -8 42 0
-43 9 0
-43 14 0
-14 -9 43 0
-44 1 0
-44 4 0
-4 -1 44 0
-45 6 0
-45 11 0
-11 -6 45 0
-46 7 0
-46 13 0
-13 -7 46 0
-47 9 0
-47 15 0
-15 -9 47 0
-48 1 0
-48 5 0
-5 -1 48 0
-49 6 0
-49 12 0
-12 -6 49 0
-50 7 0
-50 14 0
-14 -7 50 0
-51 8 0
-51 15 0
-15 -8 51 0
-52 2 0
-52 3 0
-3 -2 52 0
-53 6 0
-53 7 0
-7 -6 53 0
-54 11 0
-54 13 0
-13 -11 54 0
-55 12 0
-55 14 0
-14 -12 55 0
-56 2 0
-56 4 0
-4 -2 56 0
-57 6 0
-57 8 0
-8 -6 57 0
-58 10 0
-58 13 0
-13 -10 58 0
-59 12 0
-59 15 0
-15 -12 59 0
-60 2 0
-60 5 0
-5 -2 60 0
-61 6 0
-61 9 0
-9 -6 61 0
-62 10 0
-62 14 0
-14 -10 62 0
-63 11 0
-63 15 0
-15 -11 63 0
-64 3 0
-64 4 0
-4 -3 64 0
-65 7 0
-65 8 0
-8 -7 65 0
-66 10 0
-66 11 0
-11 -10 66 0
-67 14 0
-67 15 0
-15 -14 67 0
-68 3 0
-68 5 0
-5 -3 68 0
-69 7 0
-69 9 0
-9 -7 69 0
-70 10 0
-70 12 0
-12 -10 70 0
-71 13 0
-71 15 0
-15 -13 71 0
-72 4 0
-72 5 0
-5 -4 72 0
-73 8 0
-73 9 0
-9 -8 73 0
-74 11 0
-74 12 0
-12 -11 74 0
-75 13 0
-75 14 0
-14 -13 75 0
1 16 17 18 19 0
2 20 21 22 23 0
3 24 25 26 27 0
4 28 29 30 31 0
5 32 33 34 35 0
6 36 37 38 39 0
7 40 41 42 43 0
8 44 45 46 47 0
9 48 49 50 51 0
10 52 53 54 55 0
11 56 57 58 59 0
12 60 61 62 63 0
13 64 65 66 67 0
14 68 69 70 71 0
15 72 73 74 75 0
-15 -14 -13 -12 -11 -10 -9 -8 -7 -6 -5 -4 -3 -2 -1 0
-76 1 0
-76 -16 0
-76 -17 0
-76 -18 0
-76 -19 0
-1 16 17 18 19 76 0
-77 1 0
-77 -2 0
-77 -21 0
-77 -22 0
-77 -23 0
-1 2 21 22 23 77 0
-78 1 0
-78 -3 0
-78 -25 0
-78 -26 0
-78 -27 0
-1 3 25 26 27 78 0
-79 1 0
-79 -4 0
-79 -29 0
-79 -30 0
-79 -31 0
-1 4 29 30 31 79 0
-80 1 0
-80 -5 0
-80 -33 0
-80 -34 0
-80 -35 0
-1 5 33 34 35 80 0
-81 1 0
-81 -6 0
-81 -37 0
-81 -38 0
-81 -39 0
-1 6 37 38 39 81 0
-82 1 0
-82 -7 0
-82 -41 0
-82 -42 0
-82 -43 0
-1 7 41 42 43 82 0
-83 1 0
-83 -8 0
-83 -45 0
-83 -46 0
-83 -47 0
-1 8 45 46 47 83 0
-84 1 0
-84 -9 0
-84 -49 0
-84 -50 0
-84 -51 0
-1 9 49 50 51 84 0
-1 76 77 78 79 80 81 82 83 84 0
-85 2 0
-85 -1 0
-85 -17 0
-85 -18 0
-85 -19 0
-2 1 17 18 19 85 0
-86 2 0
-86 -20 0
-86 -21 0
-86 -22 0
-86 -23 0
-2 20 21 22 23 86 0
-87 2 0
-87 -3 0
-87 -24 0
-87 -26 0
-87 -27 0
-2 3 24 26 27 87 0
-88 2 0
-88 -4 0
-88 -28 0
-88 -30 0
-88 -31 0
-2 4 28 30 31 88 0
-89 2 0
-89 -5 0
-89 -32 0
-89 -34 0
-89 -35 0
-2 5 32 34 35 89 0
-90 2 0
-90 -6 0
-90 -37 0
-90 -38 0
-90 -39 0
-2 6 37 38 39 90 0
-91 2 0
-91 -10 0
-91 -53 0
-91 -54 0
-91 -55 0
-2 10 53 54 55 91 0
-92 2 0
-92 -11 0
-92 -57 0
-92 -58 0
-92 -59 0
-2 11 57 58 59 92 0
-93 2 0
-93 -12 0
-93 -61 0
-93 -62 0
-93 -63 0
-2 12 61 62 63 93 0
-2 85 86 87 88 89 90 91 92 93 0
-94 3 0
-94 -1 0
-94 -16 0
-94 -18 0
-94 -19 0
-3 1 16 18 19 94 0
-95 3 0
-95 -2 0
-95 -20 0
-95 -22 0
-95 -23 0
-3 2 20 22 23 95 0
-96 3 0
-96 -24 0
-96 -25 0
-96 -26 0
-96 -27 0
-3 24 25 26 27 96 0
-97 3 0
-97 -4 0
-97 -28 0
-97 -29 0
-97 -31 0
-3 4 28 29 31 97 0
-98 3 0
-98 -5 0
-98 -32 0
-98 -33 0
-98 -35 0
-3 5 32 33 35 98 0
-99 3 0
-99 -7 0
-99 -41 0
-99 -42 0
-99 -43 0
-3 7 41 42 43 99 0
-100 3 0
-100 -10 0
-100 -53 0
-100 -54 0
-100 -55 0
-3 10 53 54 55 100 0
-101 3 0
-101 -13 0
-101 -65 0
-101 -66 0
-101 -67 0
-3 13 65 66 67 101 0
-102 3 0
-102 -14 0
-102 -69 0
-102 -70 0
-102 -71 0
-3 14 69 70 71 102 0
-3 94 95 96 97 98 99 100 101 102 0
-103 4 0
-103 -1 0
-103 -16 0
-103 -17 0
-103 -19 0
-4 1 16 17 19 103 0
-104 4 0
-104 -2 0
-104 -20 0
-104 -21 0
-104 -23 0
-4 2 20 21 23 104 0
-105 4 0
-105 -3 0
-105 -24 0
-105 -25 0
-105 -27 0
-4 3 24 25 27 105 0
-106 4 0
-106 -28 0
-106 -29 0
-106 -30 0
-106 -31 0
-4 28 29 30 31 106 0
-107 4 0
-107 -5 0
-107 -32 0
-107 -33 0
-107 -34 0
-4 5 32 33 34 107 0
-108 4 0
-108 -8 0
-108 -45 0
-108 -46 0
-108 -47 0
-4 8 45 46 47 108 0
-109 4 0
-109 -11 0
-109 -57 0
-109 -58 0
-109 -59 0
-4 11 57 58 59 109 0
-110 4 0
-110 -13 0
-110 -65 0
-110 -66 0
-110 -67 0
-4 13 65 66 67 110 0
-111 4 0
-111 -15 0
-111 -73 0
-111 -74 0
-111 -75 0
-4 15 73 74 75 111 0
-4 103 104 105 106 107 108 109 110 111 0
-112 5 0
-112 -1 0
-112 -16 0
-112 -17 0
-112 -18 0
-5 1 16 17 18 112 0
-113 5 0
-113 -2 0
-113 -20 0
-113 -21 0
-113 -22 0
-5 2 20 21 22 113 0
-114 5 0
-114 -3 0
-114 -24 0
-114 -25 0
-114 -26 0
-5 3 24 25 26 114 0
-115 5 0
-115 -4 0
-115 -28 0
-115 -29 0
-115 -30 0
-5 4 28 29 30 115 0
-116 5 0
-116 -32 0
-116 -33 0
-116 -34 0
-116 -35 0
-5 32 33 34 35 116 0
-117 5 0
-117 -9 0
-117 -49 0
-117 -50 0
-117 -51 0
-5 9 49 50 51 117 0
-118 5 0
-118 -12 0
-118 -61 0
-118 -62 0
-118 -63 0
-5 12 61 62 63 118 0
-119 5 0
-119 -14 0
-119 -69 0
-119 -70 0
-119 -71 0
-5 14 69 70 71 119 0
-120 5 0
-120 -15 0
-120 -73 0
-120 -74 0
-120 -75 0
-5 15 73 74 75 120 0
-5 112 113 114 115 116 117 118 119 120 0
-121 6 0
-121 -1 0
-121 -17 0
-121 -18 0
-121 -19 0
-6 1 17 18 19 121 0
-122 6 0
-122 -2 0
-122 -21 0
-122 -22 0
-122 -23 0
-6 2 21 22 23 122 0
-123 6 0
-123 -36 0
-123 -37 0
-123 -38 0
-123 -39 0
-6 36 37 38 39 123 0
-124 6 0
-124 -7 0
-124 -40 0
-124 -42 0
-124 -43 0
-6 7 40 42 43 124 0
-125 6 0
-125 -8 0
-125 -44 0
-125 -46 0
-125 -47 0
-6 8 44 46 47 125 0
-126 6 0
-126 -9 0
-126 -48 0
-126 -50 0
-126 -51 0
-6 9 48 50 51 126 0
-127 6 0
-127 -10 0
-127 -52 0
-127 -54 0
-127 -55 0
-6 10 52 54 55 127 0
-128 6 0
-128 -11 0
-128 -56 0
-128 -58 0
-128 -59 0
-6 11 56 58 59 128 0
-129 6 0
-129 -12 0
-129 -60 0
-129 -62 0
-129 -63 0
-6 12 60 62 63 129 0
-6 121 122 123 124 125 126 127 128 129 0
-130 7 0
-130 -1 0
-130 -16 0
-130 -18 0
-130 -19 0
-7 1 16 18 19 130 0
-131 7 0
-131 -3 0
-131 -25 0
-131 -26 0
-131 -27 0
-7 3 25 26 27 131 0
-132 7 0
-132 -6 0
-132 -36 0
-132 -38 0
-132 -39 0
-7 6 36 38 39 132 0
-133 7 0
-133 -40 0
-133 -41 0
-133 -42 0
-133 -43 0
-7 40 41 42 43 133 0
-134 7 0
-134 -8 0
-134 -44 0
-134 -45 0
-134 -47 0
-7 8 44 45 47 134 0
-135 7 0
-135 -9 0
-135 -48 0
-135 -49 0
-135 -51 0
-7 9 48 49 51 135 0
-136 7 0
-136 -10 0
-136 -52 0
-136 -54 0
-136 -55 0
-7 10 52 54 55 136 0
-137 7 0
-137 -13 0
-137 -64 0
-137 -66 0
-137 -67 0
-7 13 64 66 67 137 0
-138 7 0
-138 -14 0
-138 -68 0
-138 -70 0
-138 -71 0
-7 14 68 70 71 138 0
-7 130 131 132 133 134 135 136 137 138 0
-139 8 0
-139 -1 0
-139 -16 0
-139 -17 0
-139 -19 0
-8 1 16 17 19 139 0
-140 8 0
-140 -4 0
-140 -29 0
-140 -30 0
-140 -31 0
-8 4 29 30 31 140 0
-141 8 0
-141 -6 0
-141 -36 0
-141 -37 0
-141 -39 0
-8 6 36 37 39 141 0
-142 8 0
-142 -7 0
-142 -40 0
-142 -41 0
-142 -43 0
-8 7 40 41 43 142 0
-143 8 0
-143 -44 0
-143 -45 0
-143 -46 0
-143 -47 0
-8 44 45 46 47 143 0
-144 8 0
-144 -9 0
-144 -48 0
-144 -49 0
-144 -50 0
-8 9 48 49 50 144 0
-145 8 0
-145 -11 0
-145 -56 0
-145 -58 0
-145 -59 0
-8 11 56 58 59 145 0
-146 8 0
-146 -13 0
-146 -64 0
-146 -66 0
-146 -67 0
-8 13 64 66 67 146 0
-147 8 0
-147 -15 0
-147 -72 0
-147 -74 0
-147 -75 0
-8 15 72 74 75 147 0
-8 139 140 141 142 143 144 145 146 147 0
-148 9 0
-148 -1 0
-148 -16 0
-148 -17 0
-148 -18 0
-9 1 16 17 18 148 0
-149 9 0
-149 -5 0
-149 -33 0
-149 -34 0
-149 -35 0
-9 5 33 34 35 149 0
-150 9 0
-150 -6 0
-150 -36 0
-150 -37 0
-150 -38 0
-9 6 36 37 38 150 0
-151 9 0
-151 -7 0
-151 -40 0
-151 -41 0
-151 -42 0
-9 7 40 41 42 151 0
-152 9 0
-152 -8 0
-152 -44 0
-152 -45 0
-152 -46 0
-9 8 44 45 46 152 0
-153 9 0
-153 -48 0
-153 -49 0
-153 -50 0
-153 -51 0
-9 48 49 50 51 153 0
-154 9 0
-154 -12 0
-154 -60 0
-154 -62 0
-154 -63 0
-9 12 60 62 63 154 0
-155 9 0
-155 -14 0
-155 -68 0
-155 -70 0
-155 -71 0
-9 14 68 70 71 155 0
-156 9 0
-156 -15 0
-156 -72 0
-156 -74 0
-156 -75 0
-9 15 72 74 75 156 0
-9 148 149 150 151 152 153 154 155 156 0
-157 10 0
-157 -2 0
-157 -20 0
-157 -22 0
-157 -23 0
-10 2 20 22 23 157 0
-158 10 0
-158 -3 0
-158 -24 0
-158 -26 0
-158 -27 0
-10 3 24 26 27 158 0
-159 10 0
-159 -6 0
-159 -36 0
-159 -38 0
-159 -39 0
-10 6 36 38 39 159 0
-160 10 0
-160 -7 0
-160 -40 0
-160 -42 0
-160 -43 0
-10 7 40 42 43 160 0
-161 10 0
-161 -52 0
-161 -53 0
-161 -54 0
-161 -55 0
-10 52 53 54 55 161 0
-162 10 0
-162 -11 0
-162 -56 0
-162 -57 0
-162 -59 0
-10 11 56 57 59 162 0
-163 10 0
-163 -12 0
-163 -60 0
-163 -61 0
-163 -63 0
-10 12 60 61 63 163 0
-164 10 0
-164 -13 0
-164 -64 0
-164 -65 0
-164 -67 0
-10 13 64 65 67 164 0
-165 10 0
-165 -14 0
-165 -68 0
-165 -69 0
-165 -71 0
-10 14 68 69 71 165 0
-10 157 158 159 160 161 162 163 164 165 0
-166 11 0
-166 -2 0
-166 -20 0
-166 -21 0
-166 -23 0
-11 2 20 21 23 166 0
-167 11 0
-167 -4 0
-167 -28 0
-167 -30 0
-167 -31 0
-11 4 28 30 31 167 0
-168 11 0
-168 -6 0
-168 -36 0
-168 -37 0
-168 -39 0
-11 6 36 37 39 168 0
-169 11 0
-169 -8 0
-169 -44 0
-169 -46 0
-169 -47 0
-11 8 44 46 47 169 0
-170 11 0
-170 -10 0
-170 -52 0
-170 -53 0
-170 -55 0
-11 10 52 53 55 170 0
-171 11 0
-171 -56 0
-171 -57 0
-171 -58 0
-171 -59 0
-11 56 57 58 59 171 0
-172 11 0
-172 -12 0
-172 -60 0
-172 -61 0
-172 -62 0
-11 12 60 61 62 172 0
-173 11 0
-173 -13 0
-173 -64 0
-173 -65 0
-173 -67 0
-11 13 64 65 67 173 0
-174 11 0
-174 -15 0
-174 -72 0
-174 -73 0
-174 -75 0
-11 15 72 73 75 174 0
-11 166 167 168 169 170 171 172 173 174 0
-175 12 0
-175 -2 0
-175 -20 0
-175 -21 0
-175 -22 0
-12 2 20 21 22 175 0
-176 12 0
-176 -5 0
-176 -32 0
-176 -34 0
-176 -35 0
-12 5 32 34 35 176 0
-177 12 0
-177 -6 0
-177 -36 0
-177 -37 0
-177 -38 0
-12 6 36 37 38 177 0
-178 12 0
-178 -9 0
-178 -48 0
-178 -50 0
-178 -51 0
-12 9 48 50 51 178 0
-179 12 0
-179 -10 0
-179 -52 0
-179 -53 0
-179 -54 0
-12 10 52 53 54 179 0
-180 12 0
-180 -11 0
-180 -56 0
-180 -57 0
-180 -58 0
-12 11 56 57 58 180 0
-181 12 0
-181 -60 0
-181 -61 0
-181 -62 0
-181 -63 0
-12 60 61 62 63 181 0
-182 12 0
-182 -14 0
-182 -68 0
-182 -69 0
-182 -71 0
-12 14 68 69 71 182 0
-183 12 0
-183 -15 0
-183 -72 0
-183 -73 0
-183 -75 0
-12 15 72 73 75 183 0
-12 175 176 177 178 179 180 181 182 183 0
-184 13 0
-184 -3 0
-184 -24 0
-184 -25 0
-184 -27 0
-13 3 24 25 27 184 0
-185 13 0
-185 -4 0
-185 -28 0
-185 -29 0
-185 -31 0
-13 4 28 29 31 185 0
-186 13 0
-186 -7 0
-186 -40 0
-186 -41 0
-186 -43 0
-13 7 40 41 43 186 0
-187 13 0
-187 -8 0
-187 -44 0
-187 -45 0
-187 -47 0
-13 8 44 45 47 187 0
-188 13 0
-188 -10 0
-188 -52 0
-188 -53 0
-188 -55 0
-13 10 52 53 55 188 0
-189 13 0
-189 -11 0
-189 -56 0
-189 -57 0
-189 -59 0
-13 11 56 57 59 189 0
-190 13 0
-190 -64 0
-190 -65 0
-190 -66 0
-190 -67 0
-13 64 65 66 67 190 0
-191 13 0
-191 -14 0
-191 -68 0
-191 -69 0
-191 -70 0
-13 14 68 69 70 191 0
-192 13 0
-192 -15 0
-192 -72 0
-192 -73 0
-192 -74 0
-13 15 72 73 74 192 0
-13 184 185 186 187 188 189 190 191 192 0
-193 14 0
-193 -3 0
-193 -24 0
-193 -25 0
-193 -26 0
-14 3 24 25 26 193 0
-194 14 0
-194 -5 0
-194 -32 0
-194 -33 0
-194 -35 0
-14 5 32 33 35 194 0
-195 14 0
-195 -7 0
-195 -40 0
-195 -41 0
-195 -42 0
-14 7 40 41 42 195 0
-196 14 0
-196 -9 0
-196 -48 0
-196 -49 0
-196 -51 0
-14 9 48 49 51 196 0
-197 14 0
-197 -10 0
-197 -52 0
-197 -53 0
-197 -54 0
-14 10 52 53 54 197 0
-198 14 0
-198 -12 0
-198 -60 0
-198 -61 0
-198 -63 0
-14 12 60 61 63 198 0
-199 14 0
-199 -13 0
-199 -64 0
-199 -65 0
-199 -66 0
-14 13 64 65 66 199 0
-200 14 0
-200 -68 0
-200 -69 0
-200 -70 0
-200 -71 0
-14 68 69 70 71 200 0
-201 14 0
-201 -15 0
-201 -72 0
-201 -73 0
-201 -74 0
-14 15 72 73 74 201 0
-14 193 194 195 196 197 198 199 200 201 0
-202 15 0
-202 -4 0
-202 -28 0
-202 -29 0
-202 -30 0
-15 4 28 29 30 202 0
-203 15 0
-203 -5 0
-203 -32 0
-203 -33 0
-203 -34 0
-15 5 32 33 34 203 0
-204 15 0
-204 -8 0
-204 -44 0
-204 -45 0
-204 -46 0
-15 8 44 45 46 204 0
-205 15 0
-205 -9 0
-205 -48 0
-205 -49 0
-205 -50 0
-15 9 48 49 50 205 0
-206 15 0
-206 -11 0
-206 -56 0
-206 -57 0
-206 -58 0
-15 11 56 57 58 206 0
-207 15 0
-207 -12 0
-207 -60 0
-207 -61 0
-207 -62 0
-15 12 60 61 62 207 0
-208 15 0
-208 -13 0
-208 -64 0
-208 -65 0
-208 -66 0
-15 13 64 65 66 208 0
-209 15 0
-209 -14 0
-209 -68 0
-209 -69 0
-209 -70 0
-15 14 68 69 70 209 0
-210 15 0
-210 -72 0
-210 -73 0
-210 -74 0
-210 -75 0
-15 72 73 74 75 210 0
-15 202 203 204 205 206 207 208 209 210 0
211 0
-212 0
-212 213 0
-211 -1 213 0
-213 211 212 0
-213 1 212 0
-213 214 0
-211 -2 214 0
-214 211 213 0
-214 2 213 0
-212 215 0
-213 -2 215 0
-215 212 213 0
-215 2 212 0
-214 216 0
-211 -3 216 0
-216 211 214 0
-216 3 214 0
-215 217 0
-214 -3 217 0
-217 214 215 0
-217 3 215 0
-212 218 0
-215 -3 218 0
-218 212 215 0
-218 3 212 0
-216 219 0
-211 -4 219 0
-219 211 216 0
-219 4 216 0
-217 220 0
-216 -4 220 0
-220 216 217 0
-220 4 217 0
-218 221 0
-217 -4 221 0
-221 217 218 0
-221 4 218 0
-212 222 0
-218 -4 222 0
-222 212 218 0
-222 4 212 0
-219 223 0
-211 -5 223 0
-223 211 219 0
-223 5 219 0
-220 224 0
-219 -5 224 0
-224 219 220 0
-224 5 220 0
-221 225 0
-220 -5 225 0
-225 220 221 0
-225 5 221 0
-222 226 0
-221 -5 226 0
-226 221 222 0
-226 5 222 0
-212 227 0
-222 -5 227 0
-227 212 222 0
-227 5 212 0
-223 228 0
-211 -6 228 0
-228 211 223 0
-228 6 223 0
-224 229 0
-223 -6 229 0
-229 223 224 0
-229 6 224 0
-225 230 0
-224 -6 230 0
-230 224 225 0
-230 6 225 0
-226 231 0
-225 -6 231 0
-231 225 226 0
-231 6 226 0
-227 232 0
-226 -6 232 0
-232 226 227 0
-232 6 227 0
-212 233 0
-227 -6 233 0
-233 212 227 0
-233 6 212 0
-228 234 0
-211 -7 234 0
-234 211 228 0
-234 7 228 0
-229 235 0
-228 -7 235 0
-235 228 229 0
-235 7 229 0
-230 236 0
-229 -7 236 0
-236 229 230 0
-236 7 230 0
-231 237 0
-230 -7 237 0
-237 230 231 0
-237 7 231 0
-232 238 0
-231 -7 238 0
-238 231 232 0
-238 7 232 0
-233 239 0
-232 -7 239 0
-239 232 233 0
-239 7 233 0
-212 240 0
-233 -7 240 0
-240 212 233 0
-240 7 212 0
-234 241 0
-211 -8 241 0
-241 211 234 0
-241 8 234 0
-235 242 0
-234 -8 242 0
-242 234 235 0
-242 8 235 0
-236 243 0
-235 -8 243 0
-243 235 236 0
-243 8 236 0
-237 244 0
-236 -8 244 0
-244 236 237 0
-244 8 237 0
-238 245 0
-237 -8 245 0
-245 237 238 0
-245 8 238 0
-239 246 0
-238 -8 246 0
-246 238 239 0
-246 8 239 0
-240 247 0
-239 -8 247 0
-247 239 240 0
-247 8 240 0
-212 248 0
-240 -8 248 0
-248 212 240 0
-248 8 212 0
-241 249 0
-211 -9 249 0
-249 211 241 0
-249 9 241 0
-242 250 0
-241 -9 250 0
-250 241 242 0
-250 9 242 0
-243 251 0
-242 -9 251 0
-251 242 243 0
-251 9 243 0
-244 252 0
-243 -9 252 0
-252 243 244 0
-252 9 244 0
-245 253 0
-244 -9 253 0
-253 244 245 0
-253 9 245 0
-246 254 0
-245 -9 254 0
-254 245 246 0
-254 9 246 0
-247 255 0
-246 -9 255 0
-255 246 247 0
-255 9 247 0
-248 256 0
-247 -9 256 0
-256 247 248 0
-256 9 248 0
-249 257 0
-211 -10 257 0
-257 211 249 0
-257 10 249 0
-250 258 0
-249 -10 258 0
-258 249 250 0
-258 10 250 0
-251 259 0
-250 -10 259 0
-259 250 251 0
-259 10 251 0
-252 260 0
-251 -10 260 0
-260 251 252 0
-260 10 252 0
-253 261 0
-252 -10 261 0
-261 252 253 0
-261 10 253 0
-254 262 0
-253 -10 262 0
-262 253 254 0
-262 10 254 0
-255 263 0
-254 -10 263 0
-263 254 255 0
-263 10 255 0
-256 264 0
-255 -10 264 0
-264 255 256 0
-264 10 256 0
-257 265 0
-211 -11 265 0
-265 211 257 0
-265 11 257 0
-258 266 0
-257 -11 266 0
-266 257 258 0
-266 11 258 0
-259 267 0
-258 -11 267 0
-267 258 259 0
-267 11 259 0
-260 268 0
-259 -11 268 0
-268 259 260 0
-268 11 260 0
-261 269 0
-260 -11 269 0
-269 260 261 0
-269 11 261 0
-262 270 0
-261 -11 270 0
-270 261 262 0
-270 11 262 0
-263 271 0
-262 -11 271 0
-271 262 263 0
-271 11 263 0
-264 272 0
-263 -11 272 0
-272 263 264 0
-272 11 264 0
-265 273 0
-211 -12 273 0
-273 211 265 0
-273 12 265 0
-266 274 0
-265 -12 274 0
-274 265 266 0
-274 12 266 0
-267 275 0
-266 -12 275 0
-275 266 267 0
-275 12 267 0
-268 276 0
-267 -12 276 0
-276 267 268 0
-276 12 268 0
-269 277 0
-268 -12 277 0
-277 268 269 0
-277 12 269 0
-270 278 0
-269 -12 278 0
-278 269 270 0
-278 12 270 0
-271 279 0
-270 -12 279 0
-279 270 271 0
-279 12 271 0
-272 280 0
-271 -12 280 0
-280 271 272 0
-280 12 272 0
-273 281 0
-211 -13 281 0
-281 211 273 0
-281 13 273 0
-274 282 0
-273 -13 282 0
-282 273 274 0
-282 13 274 0
-275 283 0
-274 -13 283 0
-283 274 275 0
-283 13 275 0
-276 284 0
-275 -13 284 0
-284 275 276 0
-284 13 276 0
-277 285 0
-276 -13 285 0
-285 276 277 0
-285 13 277 0
-278 286 0
-277 -13 286 0
-286 277 278 0
-286 13 278 0
-279 287 0
-278 -13 287 0
-287 278 279 0
-287 13 279 0
-280 288 0
-279 -13 288 0
-288 279 280 0
-288 13 280 0
-281 289 0
-211 -14 289 0
-289 211 281 0
-289 14 281 0
-282 290 0
-281 -14 290 0
-290 281 282 0
-290 14 282 0
-283 291 0
-282 -14 291 0
-291 282 283 0
-291 14 283 0
-284 292 0
-283 -14 292 0
-292 283 284 0
-292 14 284 0
-285 293 0
-284 -14 293 0
-293 284 285 0
-293 14 285 0
-286 294 0
-285 -14 294 0
-294 285 286 0
-294 14 286 0
-287 295 0
-286 -14 295 0
-295 286 287 0
-295 14 287 0
-288 296 0
-287 -14 296 0
-296 287 288 0
-296 14 288 0
-289 297 0
-211 -15 297 0
-297 211 289 0
-297 15 289 0
-290 298 0
-289 -15 298 0
-298 289 290 0
-298 15 290 0
-291 299 0
-290 -15 299 0
-299 290 291 0
-299 15 291 0
-292 300 0
-291 -15 300 0
-300 291 292 0
-300 15 292 0
-293 301 0
-292 -15 301 0
-301 292 293 0
-301 15 293 0
-294 302 0
-293 -15 302 0
-302 293 294 0
-302 15 294 0
-295 303 0
-294 -15 303 0
-303 294 295 0
-303 15 295 0
-296 304 0
-295 -15 304 0
-304 295 296 0
-304 15 296 0
304 0
-1 0
-2 0
-3 0
4 0
5 0
-6 0
7 0
8 0
9 0
10 0
11 0
12 0
-13 0
-14 0
-15 0
