c D2C exact encoding; edge variables are the first C(n,2) variables
c n 4 min_edges 5
p cnf 70 258
-7 2 0
-7 4 0
-4 -2 7 0
-8 3 0
-8 5 0
-5 -3 8 0
-9 1 0
-9 4 0
-4 -1 9 0
-10 3 0
-10 6 0
-6 -3 10 0
-11 1 0
-11 5 0
-5 -1 11 0
-12 2 0
-12 6 0
-6 -2 12 0
-13 1 0
-13 2 0
-2 -1 13 0
-14 5 0
-14 6 0
-6 -5 14 0
-15 1 0
-15 3 0
-3 -1 15 0
-16 4 0
-16 6 0
-6 -4 16 0
-17 2 0
-17 3 0
-3 -2 17 0
-18 4 0
-18 5 0
-5 -4 18 0
1 7 8 0
2 9 10 0
3 11 12 0
4 13 14 0
5 15 16 0
6 17 18 0
-6 -5 -4 -3 -2 -1 0
-19 1 0
-19 -7 0
-19 -8 0
-1 7 8 19 0
-20 1 0
-20 -2 0
-20 -10 0
-1 2 10 20 0
-21 1 0
-21 -3 0
-21 -12 0
-1 3 12 21 0
-22 1 0
-22 -4 0
-22 -14 0
-1 4 14 22 0
-23 1 0
-23 -5 0
-23 -16 0
-1 5 16 23 0
-1 19 20 21 22 23 0
-24 2 0
-24 -1 0
-24 -8 0
-2 1 8 24 0
-25 2 0
-25 -9 0
-25 -10 0
-2 9 10 25 0
-26 2 0
-26 -3 0
-26 -11 0
-2 3 11 26 0
-27 2 0
-27 -4 0
-27 -14 0
-2 4 14 27 0
-28 2 0
-28 -6 0
-28 -18 0
-2 6 18 28 0
-2 24 25 26 27 28 0
-29 3 0
-29 -1 0
-29 -7 0
-3 1 7 29 0
-30 3 0
-30 -2 0
-30 -9 0
-3 2 9 30 0
-31 3 0
-31 -11 0
-31 -12 0
-3 11 12 31 0
-32 3 0
-32 -5 0
-32 -16 0
-3 5 16 32 0
-33 3 0
-33 -6 0
-33 -18 0
-3 6 18 33 0
-3 29 30 31 32 33 0
-34 4 0
-34 -1 0
-34 -8 0
-4 1 8 34 0
-35 4 0
-35 -2 0
-35 -10 0
-4 2 10 35 0
-36 4 0
-36 -13 0
-36 -14 0
-4 13 14 36 0
-37 4 0
-37 -5 0
-37 -15 0
-4 5 15 37 0
-38 4 0
-38 -6 0
-38 -17 0
-4 6 17 38 0
-4 34 35 36 37 38 0
-39 5 0
-39 -1 0
-39 -7 0
-5 1 7 39 0
-40 5 0
-40 -3 0
-40 -12 0
-5 3 12 40 0
-41 5 0
-41 -4 0
-41 -13 0
-5 4 13 41 0
-42 5 0
-42 -15 0
-42 -16 0
-5 15 16 42 0
-43 5 0
-43 -6 0
-43 -17 0
-5 6 17 43 0
-5 39 40 41 42 43 0
-44 6 0
-44 -2 0
-44 -9 0
-6 2 9 44 0
-45 6 0
-45 -3 0
-45 -11 0
-6 3 11 45 0
-46 6 0
-46 -4 0
-46 -13 0
-6 4 13 46 0
-47 6 0
-47 -5 0
-47 -15 0
-6 5 15 47 0
-48 6 0
-48 -17 0
-48 -18 0
-6 17 18 48 0
-6 44 45 46 47 48 0
49 0
-50 0
-50 51 0
-49 -1 51 0
-51 49 50 0
-51 1 50 0
-51 52 0
-49 -2 52 0
-52 49 51 0
-52 2 51 0
-50 53 0
-51 -2 53 0
-53 50 51 0
-53 2 50 0
-52 54 0
-49 -3 54 0
-54 49 52 0
-54 3 52 0
-53 55 0
-52 -3 55 0
-55 52 53 0
-55 3 53 0
-50 56 0
-53 -3 56 0
-56 50 53 0
-56 3 50 0
-54 57 0
-49 -4 57 0
-57 49 54 0
-57 4 54 0
-55 58 0
-54 -4 58 0
-58 54 55 0
-58 4 55 0
-56 59 0
-55 -4 59 0
-59 55 56 0
-59 4 56 0
-50 60 0
-56 -4 60 0
-60 50 56 0
-60 4 50 0
-57 61 0
-49 -5 61 0
-61 49 57 0
-61 5 57 0
-58 62 0
-57 -5 62 0
-62 57 58 0
-62 5 58 0
-59 63 0
-58 -5 63 0
-63 58 59 0
-63 5 59 0
-60 64 0
-59 -5 64 0
-64 59 60 0
-64 5 60 0
-50 65 0
-60 -5 65 0
-65 50 60 0
-65 5 50 0
-61 66 0
-49 -6 66 0
-66 49 61 0
-66 6 61 0
-62 67 0
-61 -6 67 0
-67 61 62 0
-67 6 62 0
-63 68 0
-62 -6 68 0
-68 62 63 0
-68 6 63 0
-64 69 0
-63 -6 69 0
-69 63 64 0
-69 6 64 0
-65 70 0
-64 -6 70 0
-70 64 65 0
-70 6 65 0
70 0
1 0
2 0
3 0
4 0
5 0
-6 0
