0 1 1
0 2 4
0 3 0
0 4 0
0 5 2
0 6 2
0 7 2
0 8 2
0 9 3
0 10 4
0 11 4
0 12 1
0 13 3
0 14 0
0 15 1
0 16 1
0 17 3
0 18 4
0 19 0
0 20 4
0 21 3
0 22 1
0 23 1
0 24 0
0 25 3
1 2 2
1 3 2
1 4 2
1 5 3
1 6 0
1 7 4
1 8 4
1 9 0
1 10 4
1 11 0
1 12 1
1 13 4
1 14 3
1 15 1
1 16 0
1 17 4
1 18 3
1 19 2
1 20 1
1 21 0
1 22 3
1 23 1
1 24 4
1 25 2
2 3 2
2 4 2
2 5 1
2 6 3
2 7 0
2 8 0
2 9 1
2 10 3
2 11 4
2 12 0
2 13 1
2 14 1
2 15 0
2 16 1
2 17 0
2 18 4
2 19 3
2 20 4
2 21 2
2 22 0
2 23 3
2 24 1
2 25 2
3 4 2
3 5 4
3 6 1
3 7 3
3 8 0
3 9 4
3 10 2
3 11 3
3 12 4
3 13 0
3 14 1
3 15 3
3 16 2
3 17 1
3 18 0
3 19 4
3 20 1
3 21 4
3 22 1
3 23 0
3 24 3
3 25 2
4 5 0
4 6 4
4 7 1
4 8 3
4 9 1
4 10 1
4 11 2
4 12 3
4 13 4
4 14 0
4 15 4
4 16 3
4 17 0
4 18 1
4 19 0
4 20 3
4 21 1
4 22 4
4 23 0
4 24 0
4 25 2
5 6 2
5 7 2
5 8 2
5 9 4
5 10 0
5 11 1
5 12 4
5 13 1
5 14 3
5 15 0
5 16 1
5 17 2
5 18 3
5 19 4
5 20 0
5 21 4
5 22 3
5 23 1
5 24 1
5 25 0
6 7 2
6 8 2
6 9 0
6 10 3
6 11 0
6 12 1
6 13 4
6 14 1
6 15 4
6 16 0
6 17 1
6 18 2
6 19 3
6 20 1
6 21 0
6 22 4
6 23 3
6 24 4
6 25 4
7 8 2
7 9 1
7 10 1
7 11 3
7 12 0
7 13 0
7 14 4
7 15 3
7 16 4
7 17 0
7 18 1
7 19 0
7 20 4
7 21 1
7 22 0
7 23 4
7 24 3
7 25 4
8 9 4
8 10 4
8 11 1
8 12 3
8 13 0
8 14 2
8 15 2
8 16 3
8 17 4
8 18 0
8 19 1
8 20 3
8 21 1
8 22 1
8 23 0
8 24 4
8 25 1
9 10 1
9 11 0
9 12 4
9 13 3
9 14 0
9 15 2
9 16 0
9 17 3
9 18 1
9 19 4
9 20 2
9 21 3
9 22 2
9 23 2
9 24 2
9 25 3
10 11 2
10 12 2
10 13 2
10 14 2
10 15 0
10 16 2
10 17 4
10 18 1
10 19 3
10 20 0
10 21 1
10 22 0
10 23 3
10 24 4
10 25 0
11 12 2
11 13 2
11 14 2
11 15 3
11 16 0
11 17 2
11 18 4
11 19 1
11 20 4
11 21 0
11 22 1
11 23 4
11 24 3
11 25 1
12 13 2
12 14 2
12 15 1
12 16 3
12 17 0
12 18 2
12 19 4
12 20 3
12 21 4
12 22 0
12 23 1
12 24 0
12 25 2
13 14 2
13 15 4
13 16 1
13 17 3
13 18 0
13 19 0
13 20 1
13 21 3
13 22 4
13 23 0
13 24 1
13 25 3
14 15 1
14 16 4
14 17 1
14 18 3
14 19 0
14 20 1
14 21 4
14 22 3
14 23 4
14 24 0
14 25 4
15 16 2
15 17 2
15 18 2
15 19 2
15 20 0
15 21 4
15 22 4
15 23 1
15 24 3
15 25 0
16 17 2
16 18 2
16 19 2
16 20 3
16 21 0
16 22 4
16 23 4
16 24 1
16 25 4
17 18 2
17 19 2
17 20 1
17 21 3
17 22 0
17 23 0
17 24 4
17 25 3
18 19 2
18 20 4
18 21 1
18 22 3
18 23 0
18 24 4
18 25 0
19 20 2
19 21 4
19 22 1
19 23 3
19 24 0
19 25 1
20 21 2
20 22 2
20 23 2
20 24 2
20 25 0
21 22 2
21 23 2
21 24 2
21 25 3
22 23 2
22 24 2
22 25 1
23 24 2
23 25 4
24 25 4
