p cnf 11248 31275
-153 1 0
-153 33 0
153 -1 -33 0
-154 1 0
-154 34 0
154 -1 -34 0
-155 1 0
-155 35 0
155 -1 -35 0
-156 1 0
-156 36 0
156 -1 -36 0
-157 1 0
-157 37 0
157 -1 -37 0
-158 1 0
-158 38 0
158 -1 -38 0
-159 1 0
-159 39 0
159 -1 -39 0
-160 1 0
-160 40 0
160 -1 -40 0
-161 1 0
-161 41 0
161 -1 -41 0
-162 1 0
-162 42 0
162 -1 -42 0
-163 1 0
-163 43 0
163 -1 -43 0
-164 1 0
-164 44 0
164 -1 -44 0
-165 1 0
-165 45 0
165 -1 -45 0
-166 1 0
-166 46 0
166 -1 -46 0
-167 1 0
-167 47 0
167 -1 -47 0
-168 2 0
-168 -17 0
168 -2 17 0
-169 2 0
-169 48 0
169 -2 -48 0
-170 2 0
-170 49 0
170 -2 -49 0
-171 2 0
-171 50 0
171 -2 -50 0
-172 2 0
-172 51 0
172 -2 -51 0
-173 2 0
-173 52 0
173 -2 -52 0
-174 2 0
-174 53 0
174 -2 -53 0
-175 2 0
-175 54 0
175 -2 -54 0
-176 2 0
-176 55 0
176 -2 -55 0
-177 2 0
-177 56 0
177 -2 -56 0
-178 2 0
-178 57 0
178 -2 -57 0
-179 2 0
-179 58 0
179 -2 -58 0
-180 2 0
-180 59 0
180 -2 -59 0
-181 2 0
-181 60 0
181 -2 -60 0
-182 2 0
-182 61 0
182 -2 -61 0
-183 3 0
-183 -18 0
183 -3 18 0
-184 3 0
-184 -33 0
184 -3 33 0
-185 3 0
-185 62 0
185 -3 -62 0
-186 3 0
-186 63 0
186 -3 -63 0
-187 3 0
-187 64 0
187 -3 -64 0
-188 3 0
-188 65 0
188 -3 -65 0
-189 3 0
-189 66 0
189 -3 -66 0
-190 3 0
-190 67 0
190 -3 -67 0
-191 3 0
-191 68 0
191 -3 -68 0
-192 3 0
-192 69 0
192 -3 -69 0
-193 3 0
-193 70 0
193 -3 -70 0
-194 3 0
-194 71 0
194 -3 -71 0
-195 3 0
-195 72 0
195 -3 -72 0
-196 3 0
-196 73 0
196 -3 -73 0
-197 3 0
-197 74 0
197 -3 -74 0
-198 4 0
-198 -19 0
198 -4 19 0
-199 4 0
-199 -34 0
199 -4 34 0
-200 4 0
-200 -48 0
200 -4 48 0
-201 4 0
-201 75 0
201 -4 -75 0
-202 4 0
-202 76 0
202 -4 -76 0
-203 4 0
-203 77 0
203 -4 -77 0
-204 4 0
-204 78 0
204 -4 -78 0
-205 4 0
-205 79 0
205 -4 -79 0
-206 4 0
-206 80 0
206 -4 -80 0
-207 4 0
-207 81 0
207 -4 -81 0
-208 4 0
-208 82 0
208 -4 -82 0
-209 4 0
-209 83 0
209 -4 -83 0
-210 4 0
-210 84 0
210 -4 -84 0
-211 4 0
-211 85 0
211 -4 -85 0
-212 4 0
-212 86 0
212 -4 -86 0
-213 5 0
-213 -20 0
213 -5 20 0
-214 5 0
-214 -35 0
214 -5 35 0
-215 5 0
-215 -49 0
215 -5 49 0
-216 5 0
-216 -62 0
216 -5 62 0
-217 5 0
-217 87 0
217 -5 -87 0
-218 5 0
-218 88 0
218 -5 -88 0
-219 5 0
-219 89 0
219 -5 -89 0
-220 5 0
-220 90 0
220 -5 -90 0
-221 5 0
-221 91 0
221 -5 -91 0
-222 5 0
-222 92 0
222 -5 -92 0
-223 5 0
-223 93 0
223 -5 -93 0
-224 5 0
-224 94 0
224 -5 -94 0
-225 5 0
-225 95 0
225 -5 -95 0
-226 5 0
-226 96 0
226 -5 -96 0
-227 5 0
-227 97 0
227 -5 -97 0
-228 6 0
-228 -21 0
228 -6 21 0
-229 6 0
-229 -36 0
229 -6 36 0
-230 6 0
-230 -50 0
230 -6 50 0
-231 6 0
-231 -63 0
231 -6 63 0
-232 6 0
-232 -75 0
232 -6 75 0
-233 6 0
-233 98 0
233 -6 -98 0
-234 6 0
-234 99 0
234 -6 -99 0
-235 6 0
-235 100 0
235 -6 -100 0
-236 6 0
-236 101 0
236 -6 -101 0
-237 6 0
-237 102 0
237 -6 -102 0
-238 6 0
-238 103 0
238 -6 -103 0
-239 6 0
-239 104 0
239 -6 -104 0
-240 6 0
-240 105 0
240 -6 -105 0
-241 6 0
-241 106 0
241 -6 -106 0
-242 6 0
-242 107 0
242 -6 -107 0
-243 7 0
-243 -22 0
243 -7 22 0
-244 7 0
-244 -37 0
244 -7 37 0
-245 7 0
-245 -51 0
245 -7 51 0
-246 7 0
-246 -64 0
246 -7 64 0
-247 7 0
-247 -76 0
247 -7 76 0
-248 7 0
-248 -87 0
248 -7 87 0
-249 7 0
-249 108 0
249 -7 -108 0
-250 7 0
-250 109 0
250 -7 -109 0
-251 7 0
-251 110 0
251 -7 -110 0
-252 7 0
-252 111 0
252 -7 -111 0
-253 7 0
-253 112 0
253 -7 -112 0
-254 7 0
-254 113 0
254 -7 -113 0
-255 7 0
-255 114 0
255 -7 -114 0
-256 7 0
-256 115 0
256 -7 -115 0
-257 7 0
-257 116 0
257 -7 -116 0
-258 8 0
-258 -23 0
258 -8 23 0
-259 8 0
-259 -38 0
259 -8 38 0
-260 8 0
-260 -52 0
260 -8 52 0
-261 8 0
-261 -65 0
261 -8 65 0
-262 8 0
-262 -77 0
262 -8 77 0
-263 8 0
-263 -88 0
263 -8 88 0
-264 8 0
-264 -98 0
264 -8 98 0
-265 8 0
-265 117 0
265 -8 -117 0
-266 8 0
-266 118 0
266 -8 -118 0
-267 8 0
-267 119 0
267 -8 -119 0
-268 8 0
-268 120 0
268 -8 -120 0
-269 8 0
-269 121 0
269 -8 -121 0
-270 8 0
-270 122 0
270 -8 -122 0
-271 8 0
-271 123 0
271 -8 -123 0
-272 8 0
-272 124 0
272 -8 -124 0
-273 9 0
-273 -24 0
273 -9 24 0
-274 9 0
-274 -39 0
274 -9 39 0
-275 9 0
-275 -53 0
275 -9 53 0
-276 9 0
-276 -66 0
276 -9 66 0
-277 9 0
-277 -78 0
277 -9 78 0
-278 9 0
-278 -89 0
278 -9 89 0
-279 9 0
-279 -99 0
279 -9 99 0
-280 9 0
-280 -108 0
280 -9 108 0
-281 9 0
-281 125 0
281 -9 -125 0
-282 9 0
-282 126 0
282 -9 -126 0
-283 9 0
-283 127 0
283 -9 -127 0
-284 9 0
-284 128 0
284 -9 -128 0
-285 9 0
-285 129 0
285 -9 -129 0
-286 9 0
-286 130 0
286 -9 -130 0
-287 9 0
-287 131 0
287 -9 -131 0
-288 10 0
-288 -25 0
288 -10 25 0
-289 10 0
-289 -40 0
289 -10 40 0
-290 10 0
-290 -54 0
290 -10 54 0
-291 10 0
-291 -67 0
291 -10 67 0
-292 10 0
-292 -79 0
292 -10 79 0
-293 10 0
-293 -90 0
293 -10 90 0
-294 10 0
-294 -100 0
294 -10 100 0
-295 10 0
-295 -109 0
295 -10 109 0
-296 10 0
-296 -117 0
296 -10 117 0
-297 10 0
-297 132 0
297 -10 -132 0
-298 10 0
-298 133 0
298 -10 -133 0
-299 10 0
-299 134 0
299 -10 -134 0
-300 10 0
-300 135 0
300 -10 -135 0
-301 10 0
-301 136 0
301 -10 -136 0
-302 10 0
-302 137 0
302 -10 -137 0
-303 11 0
-303 -26 0
303 -11 26 0
-304 11 0
-304 -41 0
304 -11 41 0
-305 11 0
-305 -55 0
305 -11 55 0
-306 11 0
-306 -68 0
306 -11 68 0
-307 11 0
-307 -80 0
307 -11 80 0
-308 11 0
-308 -91 0
308 -11 91 0
-309 11 0
-309 -101 0
309 -11 101 0
-310 11 0
-310 -110 0
310 -11 110 0
-311 11 0
-311 -118 0
311 -11 118 0
-312 11 0
-312 -125 0
312 -11 125 0
-313 11 0
-313 138 0
313 -11 -138 0
-314 11 0
-314 139 0
314 -11 -139 0
-315 11 0
-315 140 0
315 -11 -140 0
-316 11 0
-316 141 0
316 -11 -141 0
-317 11 0
-317 142 0
317 -11 -142 0
-318 12 0
-318 -27 0
318 -12 27 0
-319 12 0
-319 -42 0
319 -12 42 0
-320 12 0
-320 -56 0
320 -12 56 0
-321 12 0
-321 -69 0
321 -12 69 0
-322 12 0
-322 -81 0
322 -12 81 0
-323 12 0
-323 -92 0
323 -12 92 0
-324 12 0
-324 -102 0
324 -12 102 0
-325 12 0
-325 -111 0
325 -12 111 0
-326 12 0
-326 -119 0
326 -12 119 0
-327 12 0
-327 -126 0
327 -12 126 0
-328 12 0
-328 -132 0
328 -12 132 0
-329 12 0
-329 143 0
329 -12 -143 0
-330 12 0
-330 144 0
330 -12 -144 0
-331 12 0
-331 145 0
331 -12 -145 0
-332 12 0
-332 146 0
332 -12 -146 0
-333 13 0
-333 -28 0
333 -13 28 0
-334 13 0
-334 -43 0
334 -13 43 0
-335 13 0
-335 -57 0
335 -13 57 0
-336 13 0
-336 -70 0
336 -13 70 0
-337 13 0
-337 -82 0
337 -13 82 0
-338 13 0
-338 -93 0
338 -13 93 0
-339 13 0
-339 -103 0
339 -13 103 0
-340 13 0
-340 -112 0
340 -13 112 0
-341 13 0
-341 -120 0
341 -13 120 0
-342 13 0
-342 -127 0
342 -13 127 0
-343 13 0
-343 -133 0
343 -13 133 0
-344 13 0
-344 -138 0
344 -13 138 0
-345 13 0
-345 147 0
345 -13 -147 0
-346 13 0
-346 148 0
346 -13 -148 0
-347 13 0
-347 149 0
347 -13 -149 0
-348 14 0
-348 -29 0
348 -14 29 0
-349 14 0
-349 -44 0
349 -14 44 0
-350 14 0
-350 -58 0
350 -14 58 0
-351 14 0
-351 -71 0
351 -14 71 0
-352 14 0
-352 -83 0
352 -14 83 0
-353 14 0
-353 -94 0
353 -14 94 0
-354 14 0
-354 -104 0
354 -14 104 0
-355 14 0
-355 -113 0
355 -14 113 0
-356 14 0
-356 -121 0
356 -14 121 0
-357 14 0
-357 -128 0
357 -14 128 0
-358 14 0
-358 -134 0
358 -14 134 0
-359 14 0
-359 -139 0
359 -14 139 0
-360 14 0
-360 -143 0
360 -14 143 0
-361 14 0
-361 150 0
361 -14 -150 0
-362 14 0
-362 151 0
362 -14 -151 0
-363 15 0
-363 -30 0
363 -15 30 0
-364 15 0
-364 -45 0
364 -15 45 0
-365 15 0
-365 -59 0
365 -15 59 0
-366 15 0
-366 -72 0
366 -15 72 0
-367 15 0
-367 -84 0
367 -15 84 0
-368 15 0
-368 -95 0
368 -15 95 0
-369 15 0
-369 -105 0
369 -15 105 0
-370 15 0
-370 -114 0
370 -15 114 0
-371 15 0
-371 -122 0
371 -15 122 0
-372 15 0
-372 -129 0
372 -15 129 0
-373 15 0
-373 -135 0
373 -15 135 0
-374 15 0
-374 -140 0
374 -15 140 0
-375 15 0
-375 -144 0
375 -15 144 0
-376 15 0
-376 -147 0
376 -15 147 0
-377 15 0
-377 152 0
377 -15 -152 0
-378 16 0
-378 -31 0
378 -16 31 0
-379 16 0
-379 -46 0
379 -16 46 0
-380 16 0
-380 -60 0
380 -16 60 0
-381 16 0
-381 -73 0
381 -16 73 0
-382 16 0
-382 -85 0
382 -16 85 0
-383 16 0
-383 -96 0
383 -16 96 0
-384 16 0
-384 -106 0
384 -16 106 0
-385 16 0
-385 -115 0
385 -16 115 0
-386 16 0
-386 -123 0
386 -16 123 0
-387 16 0
-387 -130 0
387 -16 130 0
-388 16 0
-388 -136 0
388 -16 136 0
-389 16 0
-389 -141 0
389 -16 141 0
-390 16 0
-390 -145 0
390 -16 145 0
-391 16 0
-391 -148 0
391 -16 148 0
-392 16 0
-392 -150 0
392 -16 150 0
-393 17 0
-393 -2 0
393 -17 2 0
-394 17 0
-394 48 0
394 -17 -48 0
-395 17 0
-395 49 0
395 -17 -49 0
-396 17 0
-396 50 0
396 -17 -50 0
-397 17 0
-397 51 0
397 -17 -51 0
-398 17 0
-398 52 0
398 -17 -52 0
-399 17 0
-399 53 0
399 -17 -53 0
-400 17 0
-400 54 0
400 -17 -54 0
-401 17 0
-401 55 0
401 -17 -55 0
-402 17 0
-402 56 0
402 -17 -56 0
-403 17 0
-403 57 0
403 -17 -57 0
-404 17 0
-404 58 0
404 -17 -58 0
-405 17 0
-405 59 0
405 -17 -59 0
-406 17 0
-406 60 0
406 -17 -60 0
-407 17 0
-407 61 0
407 -17 -61 0
-408 18 0
-408 -3 0
408 -18 3 0
-409 18 0
-409 -33 0
409 -18 33 0
-410 18 0
-410 62 0
410 -18 -62 0
-411 18 0
-411 63 0
411 -18 -63 0
-412 18 0
-412 64 0
412 -18 -64 0
-413 18 0
-413 65 0
413 -18 -65 0
-414 18 0
-414 66 0
414 -18 -66 0
-415 18 0
-415 67 0
415 -18 -67 0
-416 18 0
-416 68 0
416 -18 -68 0
-417 18 0
-417 69 0
417 -18 -69 0
-418 18 0
-418 70 0
418 -18 -70 0
-419 18 0
-419 71 0
419 -18 -71 0
-420 18 0
-420 72 0
420 -18 -72 0
-421 18 0
-421 73 0
421 -18 -73 0
-422 18 0
-422 74 0
422 -18 -74 0
-423 19 0
-423 -4 0
423 -19 4 0
-424 19 0
-424 -34 0
424 -19 34 0
-425 19 0
-425 -48 0
425 -19 48 0
-426 19 0
-426 75 0
426 -19 -75 0
-427 19 0
-427 76 0
427 -19 -76 0
-428 19 0
-428 77 0
428 -19 -77 0
-429 19 0
-429 78 0
429 -19 -78 0
-430 19 0
-430 79 0
430 -19 -79 0
-431 19 0
-431 80 0
431 -19 -80 0
-432 19 0
-432 81 0
432 -19 -81 0
-433 19 0
-433 82 0
433 -19 -82 0
-434 19 0
-434 83 0
434 -19 -83 0
-435 19 0
-435 84 0
435 -19 -84 0
-436 19 0
-436 85 0
436 -19 -85 0
-437 19 0
-437 86 0
437 -19 -86 0
-438 20 0
-438 -5 0
438 -20 5 0
-439 20 0
-439 -35 0
439 -20 35 0
-440 20 0
-440 -49 0
440 -20 49 0
-441 20 0
-441 -62 0
441 -20 62 0
-442 20 0
-442 87 0
442 -20 -87 0
-443 20 0
-443 88 0
443 -20 -88 0
-444 20 0
-444 89 0
444 -20 -89 0
-445 20 0
-445 90 0
445 -20 -90 0
-446 20 0
-446 91 0
446 -20 -91 0
-447 20 0
-447 92 0
447 -20 -92 0
-448 20 0
-448 93 0
448 -20 -93 0
-449 20 0
-449 94 0
449 -20 -94 0
-450 20 0
-450 95 0
450 -20 -95 0
-451 20 0
-451 96 0
451 -20 -96 0
-452 20 0
-452 97 0
452 -20 -97 0
-453 21 0
-453 -6 0
453 -21 6 0
-454 21 0
-454 -36 0
454 -21 36 0
-455 21 0
-455 -50 0
455 -21 50 0
-456 21 0
-456 -63 0
456 -21 63 0
-457 21 0
-457 -75 0
457 -21 75 0
-458 21 0
-458 98 0
458 -21 -98 0
-459 21 0
-459 99 0
459 -21 -99 0
-460 21 0
-460 100 0
460 -21 -100 0
-461 21 0
-461 101 0
461 -21 -101 0
-462 21 0
-462 102 0
462 -21 -102 0
-463 21 0
-463 103 0
463 -21 -103 0
-464 21 0
-464 104 0
464 -21 -104 0
-465 21 0
-465 105 0
465 -21 -105 0
-466 21 0
-466 106 0
466 -21 -106 0
-467 21 0
-467 107 0
467 -21 -107 0
-468 22 0
-468 -7 0
468 -22 7 0
-469 22 0
-469 -37 0
469 -22 37 0
-470 22 0
-470 -51 0
470 -22 51 0
-471 22 0
-471 -64 0
471 -22 64 0
-472 22 0
-472 -76 0
472 -22 76 0
-473 22 0
-473 -87 0
473 -22 87 0
-474 22 0
-474 108 0
474 -22 -108 0
-475 22 0
-475 109 0
475 -22 -109 0
-476 22 0
-476 110 0
476 -22 -110 0
-477 22 0
-477 111 0
477 -22 -111 0
-478 22 0
-478 112 0
478 -22 -112 0
-479 22 0
-479 113 0
479 -22 -113 0
-480 22 0
-480 114 0
480 -22 -114 0
-481 22 0
-481 115 0
481 -22 -115 0
-482 22 0
-482 116 0
482 -22 -116 0
-483 23 0
-483 -8 0
483 -23 8 0
-484 23 0
-484 -38 0
484 -23 38 0
-485 23 0
-485 -52 0
485 -23 52 0
-486 23 0
-486 -65 0
486 -23 65 0
-487 23 0
-487 -77 0
487 -23 77 0
-488 23 0
-488 -88 0
488 -23 88 0
-489 23 0
-489 -98 0
489 -23 98 0
-490 23 0
-490 117 0
490 -23 -117 0
-491 23 0
-491 118 0
491 -23 -118 0
-492 23 0
-492 119 0
492 -23 -119 0
-493 23 0
-493 120 0
493 -23 -120 0
-494 23 0
-494 121 0
494 -23 -121 0
-495 23 0
-495 122 0
495 -23 -122 0
-496 23 0
-496 123 0
496 -23 -123 0
-497 23 0
-497 124 0
497 -23 -124 0
-498 24 0
-498 -9 0
498 -24 9 0
-499 24 0
-499 -39 0
499 -24 39 0
-500 24 0
-500 -53 0
500 -24 53 0
-501 24 0
-501 -66 0
501 -24 66 0
-502 24 0
-502 -78 0
502 -24 78 0
-503 24 0
-503 -89 0
503 -24 89 0
-504 24 0
-504 -99 0
504 -24 99 0
-505 24 0
-505 -108 0
505 -24 108 0
-506 24 0
-506 125 0
506 -24 -125 0
-507 24 0
-507 126 0
507 -24 -126 0
-508 24 0
-508 127 0
508 -24 -127 0
-509 24 0
-509 128 0
509 -24 -128 0
-510 24 0
-510 129 0
510 -24 -129 0
-511 24 0
-511 130 0
511 -24 -130 0
-512 24 0
-512 131 0
512 -24 -131 0
-513 25 0
-513 -10 0
513 -25 10 0
-514 25 0
-514 -40 0
514 -25 40 0
-515 25 0
-515 -54 0
515 -25 54 0
-516 25 0
-516 -67 0
516 -25 67 0
-517 25 0
-517 -79 0
517 -25 79 0
-518 25 0
-518 -90 0
518 -25 90 0
-519 25 0
-519 -100 0
519 -25 100 0
-520 25 0
-520 -109 0
520 -25 109 0
-521 25 0
-521 -117 0
521 -25 117 0
-522 25 0
-522 132 0
522 -25 -132 0
-523 25 0
-523 133 0
523 -25 -133 0
-524 25 0
-524 134 0
524 -25 -134 0
-525 25 0
-525 135 0
525 -25 -135 0
-526 25 0
-526 136 0
526 -25 -136 0
-527 25 0
-527 137 0
527 -25 -137 0
-528 26 0
-528 -11 0
528 -26 11 0
-529 26 0
-529 -41 0
529 -26 41 0
-530 26 0
-530 -55 0
530 -26 55 0
-531 26 0
-531 -68 0
531 -26 68 0
-532 26 0
-532 -80 0
532 -26 80 0
-533 26 0
-533 -91 0
533 -26 91 0
-534 26 0
-534 -101 0
534 -26 101 0
-535 26 0
-535 -110 0
535 -26 110 0
-536 26 0
-536 -118 0
536 -26 118 0
-537 26 0
-537 -125 0
537 -26 125 0
-538 26 0
-538 138 0
538 -26 -138 0
-539 26 0
-539 139 0
539 -26 -139 0
-540 26 0
-540 140 0
540 -26 -140 0
-541 26 0
-541 141 0
541 -26 -141 0
-542 26 0
-542 142 0
542 -26 -142 0
-543 27 0
-543 -12 0
543 -27 12 0
-544 27 0
-544 -42 0
544 -27 42 0
-545 27 0
-545 -56 0
545 -27 56 0
-546 27 0
-546 -69 0
546 -27 69 0
-547 27 0
-547 -81 0
547 -27 81 0
-548 27 0
-548 -92 0
548 -27 92 0
-549 27 0
-549 -102 0
549 -27 102 0
-550 27 0
-550 -111 0
550 -27 111 0
-551 27 0
-551 -119 0
551 -27 119 0
-552 27 0
-552 -126 0
552 -27 126 0
-553 27 0
-553 -132 0
553 -27 132 0
-554 27 0
-554 143 0
554 -27 -143 0
-555 27 0
-555 144 0
555 -27 -144 0
-556 27 0
-556 145 0
556 -27 -145 0
-557 27 0
-557 146 0
557 -27 -146 0
-558 28 0
-558 -13 0
558 -28 13 0
-559 28 0
-559 -43 0
559 -28 43 0
-560 28 0
-560 -57 0
560 -28 57 0
-561 28 0
-561 -70 0
561 -28 70 0
-562 28 0
-562 -82 0
562 -28 82 0
-563 28 0
-563 -93 0
563 -28 93 0
-564 28 0
-564 -103 0
564 -28 103 0
-565 28 0
-565 -112 0
565 -28 112 0
-566 28 0
-566 -120 0
566 -28 120 0
-567 28 0
-567 -127 0
567 -28 127 0
-568 28 0
-568 -133 0
568 -28 133 0
-569 28 0
-569 -138 0
569 -28 138 0
-570 28 0
-570 147 0
570 -28 -147 0
-571 28 0
-571 148 0
571 -28 -148 0
-572 28 0
-572 149 0
572 -28 -149 0
-573 29 0
-573 -14 0
573 -29 14 0
-574 29 0
-574 -44 0
574 -29 44 0
-575 29 0
-575 -58 0
575 -29 58 0
-576 29 0
-576 -71 0
576 -29 71 0
-577 29 0
-577 -83 0
577 -29 83 0
-578 29 0
-578 -94 0
578 -29 94 0
-579 29 0
-579 -104 0
579 -29 104 0
-580 29 0
-580 -113 0
580 -29 113 0
-581 29 0
-581 -121 0
581 -29 121 0
-582 29 0
-582 -128 0
582 -29 128 0
-583 29 0
-583 -134 0
583 -29 134 0
-584 29 0
-584 -139 0
584 -29 139 0
-585 29 0
-585 -143 0
585 -29 143 0
-586 29 0
-586 150 0
586 -29 -150 0
-587 29 0
-587 151 0
587 -29 -151 0
-588 30 0
-588 -15 0
588 -30 15 0
-589 30 0
-589 -45 0
589 -30 45 0
-590 30 0
-590 -59 0
590 -30 59 0
-591 30 0
-591 -72 0
591 -30 72 0
-592 30 0
-592 -84 0
592 -30 84 0
-593 30 0
-593 -95 0
593 -30 95 0
-594 30 0
-594 -105 0
594 -30 105 0
-595 30 0
-595 -114 0
595 -30 114 0
-596 30 0
-596 -122 0
596 -30 122 0
-597 30 0
-597 -129 0
597 -30 129 0
-598 30 0
-598 -135 0
598 -30 135 0
-599 30 0
-599 -140 0
599 -30 140 0
-600 30 0
-600 -144 0
600 -30 144 0
-601 30 0
-601 -147 0
601 -30 147 0
-602 30 0
-602 152 0
602 -30 -152 0
-603 31 0
-603 -16 0
603 -31 16 0
-604 31 0
-604 -46 0
604 -31 46 0
-605 31 0
-605 -60 0
605 -31 60 0
-606 31 0
-606 -73 0
606 -31 73 0
-607 31 0
-607 -85 0
607 -31 85 0
-608 31 0
-608 -96 0
608 -31 96 0
-609 31 0
-609 -106 0
609 -31 106 0
-610 31 0
-610 -115 0
610 -31 115 0
-611 31 0
-611 -123 0
611 -31 123 0
-612 31 0
-612 -130 0
612 -31 130 0
-613 31 0
-613 -136 0
613 -31 136 0
-614 31 0
-614 -141 0
614 -31 141 0
-615 31 0
-615 -145 0
615 -31 145 0
-616 31 0
-616 -148 0
616 -31 148 0
-617 31 0
-617 -150 0
617 -31 150 0
-618 32 0
-618 -47 0
618 -32 47 0
-619 32 0
-619 -61 0
619 -32 61 0
-620 32 0
-620 -74 0
620 -32 74 0
-621 32 0
-621 -86 0
621 -32 86 0
-622 32 0
-622 -97 0
622 -32 97 0
-623 32 0
-623 -107 0
623 -32 107 0
-624 32 0
-624 -116 0
624 -32 116 0
-625 32 0
-625 -124 0
625 -32 124 0
-626 32 0
-626 -131 0
626 -32 131 0
-627 32 0
-627 -137 0
627 -32 137 0
-628 32 0
-628 -142 0
628 -32 142 0
-629 32 0
-629 -146 0
629 -32 146 0
-630 32 0
-630 -149 0
630 -32 149 0
-631 32 0
-631 -151 0
631 -32 151 0
-632 32 0
-632 -152 0
632 -32 152 0
-633 -1 0
-633 2 0
633 1 -2 0
-634 -1 0
-634 3 0
634 1 -3 0
-635 -1 0
-635 4 0
635 1 -4 0
-636 -1 0
-636 5 0
636 1 -5 0
-637 -1 0
-637 6 0
637 1 -6 0
-638 -1 0
-638 7 0
638 1 -7 0
-639 -1 0
-639 8 0
639 1 -8 0
-640 -1 0
-640 9 0
640 1 -9 0
-641 -1 0
-641 10 0
641 1 -10 0
-642 -1 0
-642 11 0
642 1 -11 0
-643 -1 0
-643 12 0
643 1 -12 0
-644 -1 0
-644 13 0
644 1 -13 0
-645 -1 0
-645 14 0
645 1 -14 0
-646 -1 0
-646 15 0
646 1 -15 0
-647 -1 0
-647 16 0
647 1 -16 0
-648 33 0
-648 -3 0
648 -33 3 0
-649 33 0
-649 -18 0
649 -33 18 0
-650 33 0
-650 62 0
650 -33 -62 0
-651 33 0
-651 63 0
651 -33 -63 0
-652 33 0
-652 64 0
652 -33 -64 0
-653 33 0
-653 65 0
653 -33 -65 0
-654 33 0
-654 66 0
654 -33 -66 0
-655 33 0
-655 67 0
655 -33 -67 0
-656 33 0
-656 68 0
656 -33 -68 0
-657 33 0
-657 69 0
657 -33 -69 0
-658 33 0
-658 70 0
658 -33 -70 0
-659 33 0
-659 71 0
659 -33 -71 0
-660 33 0
-660 72 0
660 -33 -72 0
-661 33 0
-661 73 0
661 -33 -73 0
-662 33 0
-662 74 0
662 -33 -74 0
-663 34 0
-663 -4 0
663 -34 4 0
-664 34 0
-664 -19 0
664 -34 19 0
-665 34 0
-665 -48 0
665 -34 48 0
-666 34 0
-666 75 0
666 -34 -75 0
-667 34 0
-667 76 0
667 -34 -76 0
-668 34 0
-668 77 0
668 -34 -77 0
-669 34 0
-669 78 0
669 -34 -78 0
-670 34 0
-670 79 0
670 -34 -79 0
-671 34 0
-671 80 0
671 -34 -80 0
-672 34 0
-672 81 0
672 -34 -81 0
-673 34 0
-673 82 0
673 -34 -82 0
-674 34 0
-674 83 0
674 -34 -83 0
-675 34 0
-675 84 0
675 -34 -84 0
-676 34 0
-676 85 0
676 -34 -85 0
-677 34 0
-677 86 0
677 -34 -86 0
-678 35 0
-678 -5 0
678 -35 5 0
-679 35 0
-679 -20 0
679 -35 20 0
-680 35 0
-680 -49 0
680 -35 49 0
-681 35 0
-681 -62 0
681 -35 62 0
-682 35 0
-682 87 0
682 -35 -87 0
-683 35 0
-683 88 0
683 -35 -88 0
-684 35 0
-684 89 0
684 -35 -89 0
-685 35 0
-685 90 0
685 -35 -90 0
-686 35 0
-686 91 0
686 -35 -91 0
-687 35 0
-687 92 0
687 -35 -92 0
-688 35 0
-688 93 0
688 -35 -93 0
-689 35 0
-689 94 0
689 -35 -94 0
-690 35 0
-690 95 0
690 -35 -95 0
-691 35 0
-691 96 0
691 -35 -96 0
-692 35 0
-692 97 0
692 -35 -97 0
-693 36 0
-693 -6 0
693 -36 6 0
-694 36 0
-694 -21 0
694 -36 21 0
-695 36 0
-695 -50 0
695 -36 50 0
-696 36 0
-696 -63 0
696 -36 63 0
-697 36 0
-697 -75 0
697 -36 75 0
-698 36 0
-698 98 0
698 -36 -98 0
-699 36 0
-699 99 0
699 -36 -99 0
-700 36 0
-700 100 0
700 -36 -100 0
-701 36 0
-701 101 0
701 -36 -101 0
-702 36 0
-702 102 0
702 -36 -102 0
-703 36 0
-703 103 0
703 -36 -103 0
-704 36 0
-704 104 0
704 -36 -104 0
-705 36 0
-705 105 0
705 -36 -105 0
-706 36 0
-706 106 0
706 -36 -106 0
-707 36 0
-707 107 0
707 -36 -107 0
-708 37 0
-708 -7 0
708 -37 7 0
-709 37 0
-709 -22 0
709 -37 22 0
-710 37 0
-710 -51 0
710 -37 51 0
-711 37 0
-711 -64 0
711 -37 64 0
-712 37 0
-712 -76 0
712 -37 76 0
-713 37 0
-713 -87 0
713 -37 87 0
-714 37 0
-714 108 0
714 -37 -108 0
-715 37 0
-715 109 0
715 -37 -109 0
-716 37 0
-716 110 0
716 -37 -110 0
-717 37 0
-717 111 0
717 -37 -111 0
-718 37 0
-718 112 0
718 -37 -112 0
-719 37 0
-719 113 0
719 -37 -113 0
-720 37 0
-720 114 0
720 -37 -114 0
-721 37 0
-721 115 0
721 -37 -115 0
-722 37 0
-722 116 0
722 -37 -116 0
-723 38 0
-723 -8 0
723 -38 8 0
-724 38 0
-724 -23 0
724 -38 23 0
-725 38 0
-725 -52 0
725 -38 52 0
-726 38 0
-726 -65 0
726 -38 65 0
-727 38 0
-727 -77 0
727 -38 77 0
-728 38 0
-728 -88 0
728 -38 88 0
-729 38 0
-729 -98 0
729 -38 98 0
-730 38 0
-730 117 0
730 -38 -117 0
-731 38 0
-731 118 0
731 -38 -118 0
-732 38 0
-732 119 0
732 -38 -119 0
-733 38 0
-733 120 0
733 -38 -120 0
-734 38 0
-734 121 0
734 -38 -121 0
-735 38 0
-735 122 0
735 -38 -122 0
-736 38 0
-736 123 0
736 -38 -123 0
-737 38 0
-737 124 0
737 -38 -124 0
-738 39 0
-738 -9 0
738 -39 9 0
-739 39 0
-739 -24 0
739 -39 24 0
-740 39 0
-740 -53 0
740 -39 53 0
-741 39 0
-741 -66 0
741 -39 66 0
-742 39 0
-742 -78 0
742 -39 78 0
-743 39 0
-743 -89 0
743 -39 89 0
-744 39 0
-744 -99 0
744 -39 99 0
-745 39 0
-745 -108 0
745 -39 108 0
-746 39 0
-746 125 0
746 -39 -125 0
-747 39 0
-747 126 0
747 -39 -126 0
-748 39 0
-748 127 0
748 -39 -127 0
-749 39 0
-749 128 0
749 -39 -128 0
-750 39 0
-750 129 0
750 -39 -129 0
-751 39 0
-751 130 0
751 -39 -130 0
-752 39 0
-752 131 0
752 -39 -131 0
-753 40 0
-753 -10 0
753 -40 10 0
-754 40 0
-754 -25 0
754 -40 25 0
-755 40 0
-755 -54 0
755 -40 54 0
-756 40 0
-756 -67 0
756 -40 67 0
-757 40 0
-757 -79 0
757 -40 79 0
-758 40 0
-758 -90 0
758 -40 90 0
-759 40 0
-759 -100 0
759 -40 100 0
-760 40 0
-760 -109 0
760 -40 109 0
-761 40 0
-761 -117 0
761 -40 117 0
-762 40 0
-762 132 0
762 -40 -132 0
-763 40 0
-763 133 0
763 -40 -133 0
-764 40 0
-764 134 0
764 -40 -134 0
-765 40 0
-765 135 0
765 -40 -135 0
-766 40 0
-766 136 0
766 -40 -136 0
-767 40 0
-767 137 0
767 -40 -137 0
-768 41 0
-768 -11 0
768 -41 11 0
-769 41 0
-769 -26 0
769 -41 26 0
-770 41 0
-770 -55 0
770 -41 55 0
-771 41 0
-771 -68 0
771 -41 68 0
-772 41 0
-772 -80 0
772 -41 80 0
-773 41 0
-773 -91 0
773 -41 91 0
-774 41 0
-774 -101 0
774 -41 101 0
-775 41 0
-775 -110 0
775 -41 110 0
-776 41 0
-776 -118 0
776 -41 118 0
-777 41 0
-777 -125 0
777 -41 125 0
-778 41 0
-778 138 0
778 -41 -138 0
-779 41 0
-779 139 0
779 -41 -139 0
-780 41 0
-780 140 0
780 -41 -140 0
-781 41 0
-781 141 0
781 -41 -141 0
-782 41 0
-782 142 0
782 -41 -142 0
-783 42 0
-783 -12 0
783 -42 12 0
-784 42 0
-784 -27 0
784 -42 27 0
-785 42 0
-785 -56 0
785 -42 56 0
-786 42 0
-786 -69 0
786 -42 69 0
-787 42 0
-787 -81 0
787 -42 81 0
-788 42 0
-788 -92 0
788 -42 92 0
-789 42 0
-789 -102 0
789 -42 102 0
-790 42 0
-790 -111 0
790 -42 111 0
-791 42 0
-791 -119 0
791 -42 119 0
-792 42 0
-792 -126 0
792 -42 126 0
-793 42 0
-793 -132 0
793 -42 132 0
-794 42 0
-794 143 0
794 -42 -143 0
-795 42 0
-795 144 0
795 -42 -144 0
-796 42 0
-796 145 0
796 -42 -145 0
-797 42 0
-797 146 0
797 -42 -146 0
-798 43 0
-798 -13 0
798 -43 13 0
-799 43 0
-799 -28 0
799 -43 28 0
-800 43 0
-800 -57 0
800 -43 57 0
-801 43 0
-801 -70 0
801 -43 70 0
-802 43 0
-802 -82 0
802 -43 82 0
-803 43 0
-803 -93 0
803 -43 93 0
-804 43 0
-804 -103 0
804 -43 103 0
-805 43 0
-805 -112 0
805 -43 112 0
-806 43 0
-806 -120 0
806 -43 120 0
-807 43 0
-807 -127 0
807 -43 127 0
-808 43 0
-808 -133 0
808 -43 133 0
-809 43 0
-809 -138 0
809 -43 138 0
-810 43 0
-810 147 0
810 -43 -147 0
-811 43 0
-811 148 0
811 -43 -148 0
-812 43 0
-812 149 0
812 -43 -149 0
-813 44 0
-813 -14 0
813 -44 14 0
-814 44 0
-814 -29 0
814 -44 29 0
-815 44 0
-815 -58 0
815 -44 58 0
-816 44 0
-816 -71 0
816 -44 71 0
-817 44 0
-817 -83 0
817 -44 83 0
-818 44 0
-818 -94 0
818 -44 94 0
-819 44 0
-819 -104 0
819 -44 104 0
-820 44 0
-820 -113 0
820 -44 113 0
-821 44 0
-821 -121 0
821 -44 121 0
-822 44 0
-822 -128 0
822 -44 128 0
-823 44 0
-823 -134 0
823 -44 134 0
-824 44 0
-824 -139 0
824 -44 139 0
-825 44 0
-825 -143 0
825 -44 143 0
-826 44 0
-826 150 0
826 -44 -150 0
-827 44 0
-827 151 0
827 -44 -151 0
-828 45 0
-828 -15 0
828 -45 15 0
-829 45 0
-829 -30 0
829 -45 30 0
-830 45 0
-830 -59 0
830 -45 59 0
-831 45 0
-831 -72 0
831 -45 72 0
-832 45 0
-832 -84 0
832 -45 84 0
-833 45 0
-833 -95 0
833 -45 95 0
-834 45 0
-834 -105 0
834 -45 105 0
-835 45 0
-835 -114 0
835 -45 114 0
-836 45 0
-836 -122 0
836 -45 122 0
-837 45 0
-837 -129 0
837 -45 129 0
-838 45 0
-838 -135 0
838 -45 135 0
-839 45 0
-839 -140 0
839 -45 140 0
-840 45 0
-840 -144 0
840 -45 144 0
-841 45 0
-841 -147 0
841 -45 147 0
-842 45 0
-842 152 0
842 -45 -152 0
-843 46 0
-843 -16 0
843 -46 16 0
-844 46 0
-844 -31 0
844 -46 31 0
-845 46 0
-845 -60 0
845 -46 60 0
-846 46 0
-846 -73 0
846 -46 73 0
-847 46 0
-847 -85 0
847 -46 85 0
-848 46 0
-848 -96 0
848 -46 96 0
-849 46 0
-849 -106 0
849 -46 106 0
-850 46 0
-850 -115 0
850 -46 115 0
-851 46 0
-851 -123 0
851 -46 123 0
-852 46 0
-852 -130 0
852 -46 130 0
-853 46 0
-853 -136 0
853 -46 136 0
-854 46 0
-854 -141 0
854 -46 141 0
-855 46 0
-855 -145 0
855 -46 145 0
-856 46 0
-856 -148 0
856 -46 148 0
-857 46 0
-857 -150 0
857 -46 150 0
-858 47 0
-858 -32 0
858 -47 32 0
-859 47 0
-859 -61 0
859 -47 61 0
-860 47 0
-860 -74 0
860 -47 74 0
-861 47 0
-861 -86 0
861 -47 86 0
-862 47 0
-862 -97 0
862 -47 97 0
-863 47 0
-863 -107 0
863 -47 107 0
-864 47 0
-864 -116 0
864 -47 116 0
-865 47 0
-865 -124 0
865 -47 124 0
-866 47 0
-866 -131 0
866 -47 131 0
-867 47 0
-867 -137 0
867 -47 137 0
-868 47 0
-868 -142 0
868 -47 142 0
-869 47 0
-869 -146 0
869 -47 146 0
-870 47 0
-870 -149 0
870 -47 149 0
-871 47 0
-871 -151 0
871 -47 151 0
-872 47 0
-872 -152 0
872 -47 152 0
-873 -2 0
-873 1 0
873 2 -1 0
-874 -2 0
-874 3 0
874 2 -3 0
-875 -2 0
-875 4 0
875 2 -4 0
-876 -2 0
-876 5 0
876 2 -5 0
-877 -2 0
-877 6 0
877 2 -6 0
-878 -2 0
-878 7 0
878 2 -7 0
-879 -2 0
-879 8 0
879 2 -8 0
-880 -2 0
-880 9 0
880 2 -9 0
-881 -2 0
-881 10 0
881 2 -10 0
-882 -2 0
-882 11 0
882 2 -11 0
-883 -2 0
-883 12 0
883 2 -12 0
-884 -2 0
-884 13 0
884 2 -13 0
-885 -2 0
-885 14 0
885 2 -14 0
-886 -2 0
-886 15 0
886 2 -15 0
-887 -2 0
-887 16 0
887 2 -16 0
-888 -17 0
-888 18 0
888 17 -18 0
-889 -17 0
-889 19 0
889 17 -19 0
-890 -17 0
-890 20 0
890 17 -20 0
-891 -17 0
-891 21 0
891 17 -21 0
-892 -17 0
-892 22 0
892 17 -22 0
-893 -17 0
-893 23 0
893 17 -23 0
-894 -17 0
-894 24 0
894 17 -24 0
-895 -17 0
-895 25 0
895 17 -25 0
-896 -17 0
-896 26 0
896 17 -26 0
-897 -17 0
-897 27 0
897 17 -27 0
-898 -17 0
-898 28 0
898 17 -28 0
-899 -17 0
-899 29 0
899 17 -29 0
-900 -17 0
-900 30 0
900 17 -30 0
-901 -17 0
-901 31 0
901 17 -31 0
-902 -17 0
-902 32 0
902 17 -32 0
-903 48 0
-903 -4 0
903 -48 4 0
-904 48 0
-904 -19 0
904 -48 19 0
-905 48 0
-905 -34 0
905 -48 34 0
-906 48 0
-906 75 0
906 -48 -75 0
-907 48 0
-907 76 0
907 -48 -76 0
-908 48 0
-908 77 0
908 -48 -77 0
-909 48 0
-909 78 0
909 -48 -78 0
-910 48 0
-910 79 0
910 -48 -79 0
-911 48 0
-911 80 0
911 -48 -80 0
-912 48 0
-912 81 0
912 -48 -81 0
-913 48 0
-913 82 0
913 -48 -82 0
-914 48 0
-914 83 0
914 -48 -83 0
-915 48 0
-915 84 0
915 -48 -84 0
-916 48 0
-916 85 0
916 -48 -85 0
-917 48 0
-917 86 0
917 -48 -86 0
-918 49 0
-918 -5 0
918 -49 5 0
-919 49 0
-919 -20 0
919 -49 20 0
-920 49 0
-920 -35 0
920 -49 35 0
-921 49 0
-921 -62 0
921 -49 62 0
-922 49 0
-922 87 0
922 -49 -87 0
-923 49 0
-923 88 0
923 -49 -88 0
-924 49 0
-924 89 0
924 -49 -89 0
-925 49 0
-925 90 0
925 -49 -90 0
-926 49 0
-926 91 0
926 -49 -91 0
-927 49 0
-927 92 0
927 -49 -92 0
-928 49 0
-928 93 0
928 -49 -93 0
-929 49 0
-929 94 0
929 -49 -94 0
-930 49 0
-930 95 0
930 -49 -95 0
-931 49 0
-931 96 0
931 -49 -96 0
-932 49 0
-932 97 0
932 -49 -97 0
-933 50 0
-933 -6 0
933 -50 6 0
-934 50 0
-934 -21 0
934 -50 21 0
-935 50 0
-935 -36 0
935 -50 36 0
-936 50 0
-936 -63 0
936 -50 63 0
-937 50 0
-937 -75 0
937 -50 75 0
-938 50 0
-938 98 0
938 -50 -98 0
-939 50 0
-939 99 0
939 -50 -99 0
-940 50 0
-940 100 0
940 -50 -100 0
-941 50 0
-941 101 0
941 -50 -101 0
-942 50 0
-942 102 0
942 -50 -102 0
-943 50 0
-943 103 0
943 -50 -103 0
-944 50 0
-944 104 0
944 -50 -104 0
-945 50 0
-945 105 0
945 -50 -105 0
-946 50 0
-946 106 0
946 -50 -106 0
-947 50 0
-947 107 0
947 -50 -107 0
-948 51 0
-948 -7 0
948 -51 7 0
-949 51 0
-949 -22 0
949 -51 22 0
-950 51 0
-950 -37 0
950 -51 37 0
-951 51 0
-951 -64 0
951 -51 64 0
-952 51 0
-952 -76 0
952 -51 76 0
-953 51 0
-953 -87 0
953 -51 87 0
-954 51 0
-954 108 0
954 -51 -108 0
-955 51 0
-955 109 0
955 -51 -109 0
-956 51 0
-956 110 0
956 -51 -110 0
-957 51 0
-957 111 0
957 -51 -111 0
-958 51 0
-958 112 0
958 -51 -112 0
-959 51 0
-959 113 0
959 -51 -113 0
-960 51 0
-960 114 0
960 -51 -114 0
-961 51 0
-961 115 0
961 -51 -115 0
-962 51 0
-962 116 0
962 -51 -116 0
-963 52 0
-963 -8 0
963 -52 8 0
-964 52 0
-964 -23 0
964 -52 23 0
-965 52 0
-965 -38 0
965 -52 38 0
-966 52 0
-966 -65 0
966 -52 65 0
-967 52 0
-967 -77 0
967 -52 77 0
-968 52 0
-968 -88 0
968 -52 88 0
-969 52 0
-969 -98 0
969 -52 98 0
-970 52 0
-970 117 0
970 -52 -117 0
-971 52 0
-971 118 0
971 -52 -118 0
-972 52 0
-972 119 0
972 -52 -119 0
-973 52 0
-973 120 0
973 -52 -120 0
-974 52 0
-974 121 0
974 -52 -121 0
-975 52 0
-975 122 0
975 -52 -122 0
-976 52 0
-976 123 0
976 -52 -123 0
-977 52 0
-977 124 0
977 -52 -124 0
-978 53 0
-978 -9 0
978 -53 9 0
-979 53 0
-979 -24 0
979 -53 24 0
-980 53 0
-980 -39 0
980 -53 39 0
-981 53 0
-981 -66 0
981 -53 66 0
-982 53 0
-982 -78 0
982 -53 78 0
-983 53 0
-983 -89 0
983 -53 89 0
-984 53 0
-984 -99 0
984 -53 99 0
-985 53 0
-985 -108 0
985 -53 108 0
-986 53 0
-986 125 0
986 -53 -125 0
-987 53 0
-987 126 0
987 -53 -126 0
-988 53 0
-988 127 0
988 -53 -127 0
-989 53 0
-989 128 0
989 -53 -128 0
-990 53 0
-990 129 0
990 -53 -129 0
-991 53 0
-991 130 0
991 -53 -130 0
-992 53 0
-992 131 0
992 -53 -131 0
-993 54 0
-993 -10 0
993 -54 10 0
-994 54 0
-994 -25 0
994 -54 25 0
-995 54 0
-995 -40 0
995 -54 40 0
-996 54 0
-996 -67 0
996 -54 67 0
-997 54 0
-997 -79 0
997 -54 79 0
-998 54 0
-998 -90 0
998 -54 90 0
-999 54 0
-999 -100 0
999 -54 100 0
-1000 54 0
-1000 -109 0
1000 -54 109 0
-1001 54 0
-1001 -117 0
1001 -54 117 0
-1002 54 0
-1002 132 0
1002 -54 -132 0
-1003 54 0
-1003 133 0
1003 -54 -133 0
-1004 54 0
-1004 134 0
1004 -54 -134 0
-1005 54 0
-1005 135 0
1005 -54 -135 0
-1006 54 0
-1006 136 0
1006 -54 -136 0
-1007 54 0
-1007 137 0
1007 -54 -137 0
-1008 55 0
-1008 -11 0
1008 -55 11 0
-1009 55 0
-1009 -26 0
1009 -55 26 0
-1010 55 0
-1010 -41 0
1010 -55 41 0
-1011 55 0
-1011 -68 0
1011 -55 68 0
-1012 55 0
-1012 -80 0
1012 -55 80 0
-1013 55 0
-1013 -91 0
1013 -55 91 0
-1014 55 0
-1014 -101 0
1014 -55 101 0
-1015 55 0
-1015 -110 0
1015 -55 110 0
-1016 55 0
-1016 -118 0
1016 -55 118 0
-1017 55 0
-1017 -125 0
1017 -55 125 0
-1018 55 0
-1018 138 0
1018 -55 -138 0
-1019 55 0
-1019 139 0
1019 -55 -139 0
-1020 55 0
-1020 140 0
1020 -55 -140 0
-1021 55 0
-1021 141 0
1021 -55 -141 0
-1022 55 0
-1022 142 0
1022 -55 -142 0
-1023 56 0
-1023 -12 0
1023 -56 12 0
-1024 56 0
-1024 -27 0
1024 -56 27 0
-1025 56 0
-1025 -42 0
1025 -56 42 0
-1026 56 0
-1026 -69 0
1026 -56 69 0
-1027 56 0
-1027 -81 0
1027 -56 81 0
-1028 56 0
-1028 -92 0
1028 -56 92 0
-1029 56 0
-1029 -102 0
1029 -56 102 0
-1030 56 0
-1030 -111 0
1030 -56 111 0
-1031 56 0
-1031 -119 0
1031 -56 119 0
-1032 56 0
-1032 -126 0
1032 -56 126 0
-1033 56 0
-1033 -132 0
1033 -56 132 0
-1034 56 0
-1034 143 0
1034 -56 -143 0
-1035 56 0
-1035 144 0
1035 -56 -144 0
-1036 56 0
-1036 145 0
1036 -56 -145 0
-1037 56 0
-1037 146 0
1037 -56 -146 0
-1038 57 0
-1038 -13 0
1038 -57 13 0
-1039 57 0
-1039 -28 0
1039 -57 28 0
-1040 57 0
-1040 -43 0
1040 -57 43 0
-1041 57 0
-1041 -70 0
1041 -57 70 0
-1042 57 0
-1042 -82 0
1042 -57 82 0
-1043 57 0
-1043 -93 0
1043 -57 93 0
-1044 57 0
-1044 -103 0
1044 -57 103 0
-1045 57 0
-1045 -112 0
1045 -57 112 0
-1046 57 0
-1046 -120 0
1046 -57 120 0
-1047 57 0
-1047 -127 0
1047 -57 127 0
-1048 57 0
-1048 -133 0
1048 -57 133 0
-1049 57 0
-1049 -138 0
1049 -57 138 0
-1050 57 0
-1050 147 0
1050 -57 -147 0
-1051 57 0
-1051 148 0
1051 -57 -148 0
-1052 57 0
-1052 149 0
1052 -57 -149 0
-1053 58 0
-1053 -14 0
1053 -58 14 0
-1054 58 0
-1054 -29 0
1054 -58 29 0
-1055 58 0
-1055 -44 0
1055 -58 44 0
-1056 58 0
-1056 -71 0
1056 -58 71 0
-1057 58 0
-1057 -83 0
1057 -58 83 0
-1058 58 0
-1058 -94 0
1058 -58 94 0
-1059 58 0
-1059 -104 0
1059 -58 104 0
-1060 58 0
-1060 -113 0
1060 -58 113 0
-1061 58 0
-1061 -121 0
1061 -58 121 0
-1062 58 0
-1062 -128 0
1062 -58 128 0
-1063 58 0
-1063 -134 0
1063 -58 134 0
-1064 58 0
-1064 -139 0
1064 -58 139 0
-1065 58 0
-1065 -143 0
1065 -58 143 0
-1066 58 0
-1066 150 0
1066 -58 -150 0
-1067 58 0
-1067 151 0
1067 -58 -151 0
-1068 59 0
-1068 -15 0
1068 -59 15 0
-1069 59 0
-1069 -30 0
1069 -59 30 0
-1070 59 0
-1070 -45 0
1070 -59 45 0
-1071 59 0
-1071 -72 0
1071 -59 72 0
-1072 59 0
-1072 -84 0
1072 -59 84 0
-1073 59 0
-1073 -95 0
1073 -59 95 0
-1074 59 0
-1074 -105 0
1074 -59 105 0
-1075 59 0
-1075 -114 0
1075 -59 114 0
-1076 59 0
-1076 -122 0
1076 -59 122 0
-1077 59 0
-1077 -129 0
1077 -59 129 0
-1078 59 0
-1078 -135 0
1078 -59 135 0
-1079 59 0
-1079 -140 0
1079 -59 140 0
-1080 59 0
-1080 -144 0
1080 -59 144 0
-1081 59 0
-1081 -147 0
1081 -59 147 0
-1082 59 0
-1082 152 0
1082 -59 -152 0
-1083 60 0
-1083 -16 0
1083 -60 16 0
-1084 60 0
-1084 -31 0
1084 -60 31 0
-1085 60 0
-1085 -46 0
1085 -60 46 0
-1086 60 0
-1086 -73 0
1086 -60 73 0
-1087 60 0
-1087 -85 0
1087 -60 85 0
-1088 60 0
-1088 -96 0
1088 -60 96 0
-1089 60 0
-1089 -106 0
1089 -60 106 0
-1090 60 0
-1090 -115 0
1090 -60 115 0
-1091 60 0
-1091 -123 0
1091 -60 123 0
-1092 60 0
-1092 -130 0
1092 -60 130 0
-1093 60 0
-1093 -136 0
1093 -60 136 0
-1094 60 0
-1094 -141 0
1094 -60 141 0
-1095 60 0
-1095 -145 0
1095 -60 145 0
-1096 60 0
-1096 -148 0
1096 -60 148 0
-1097 60 0
-1097 -150 0
1097 -60 150 0
-1098 61 0
-1098 -32 0
1098 -61 32 0
-1099 61 0
-1099 -47 0
1099 -61 47 0
-1100 61 0
-1100 -74 0
1100 -61 74 0
-1101 61 0
-1101 -86 0
1101 -61 86 0
-1102 61 0
-1102 -97 0
1102 -61 97 0
-1103 61 0
-1103 -107 0
1103 -61 107 0
-1104 61 0
-1104 -116 0
1104 -61 116 0
-1105 61 0
-1105 -124 0
1105 -61 124 0
-1106 61 0
-1106 -131 0
1106 -61 131 0
-1107 61 0
-1107 -137 0
1107 -61 137 0
-1108 61 0
-1108 -142 0
1108 -61 142 0
-1109 61 0
-1109 -146 0
1109 -61 146 0
-1110 61 0
-1110 -149 0
1110 -61 149 0
-1111 61 0
-1111 -151 0
1111 -61 151 0
-1112 61 0
-1112 -152 0
1112 -61 152 0
-1113 -3 0
-1113 1 0
1113 3 -1 0
-1114 -3 0
-1114 2 0
1114 3 -2 0
-1115 -3 0
-1115 4 0
1115 3 -4 0
-1116 -3 0
-1116 5 0
1116 3 -5 0
-1117 -3 0
-1117 6 0
1117 3 -6 0
-1118 -3 0
-1118 7 0
1118 3 -7 0
-1119 -3 0
-1119 8 0
1119 3 -8 0
-1120 -3 0
-1120 9 0
1120 3 -9 0
-1121 -3 0
-1121 10 0
1121 3 -10 0
-1122 -3 0
-1122 11 0
1122 3 -11 0
-1123 -3 0
-1123 12 0
1123 3 -12 0
-1124 -3 0
-1124 13 0
1124 3 -13 0
-1125 -3 0
-1125 14 0
1125 3 -14 0
-1126 -3 0
-1126 15 0
1126 3 -15 0
-1127 -3 0
-1127 16 0
1127 3 -16 0
-1128 -18 0
-1128 17 0
1128 18 -17 0
-1129 -18 0
-1129 19 0
1129 18 -19 0
-1130 -18 0
-1130 20 0
1130 18 -20 0
-1131 -18 0
-1131 21 0
1131 18 -21 0
-1132 -18 0
-1132 22 0
1132 18 -22 0
-1133 -18 0
-1133 23 0
1133 18 -23 0
-1134 -18 0
-1134 24 0
1134 18 -24 0
-1135 -18 0
-1135 25 0
1135 18 -25 0
-1136 -18 0
-1136 26 0
1136 18 -26 0
-1137 -18 0
-1137 27 0
1137 18 -27 0
-1138 -18 0
-1138 28 0
1138 18 -28 0
-1139 -18 0
-1139 29 0
1139 18 -29 0
-1140 -18 0
-1140 30 0
1140 18 -30 0
-1141 -18 0
-1141 31 0
1141 18 -31 0
-1142 -18 0
-1142 32 0
1142 18 -32 0
-1143 -33 0
-1143 -1 0
1143 33 1 0
-1144 -33 0
-1144 34 0
1144 33 -34 0
-1145 -33 0
-1145 35 0
1145 33 -35 0
-1146 -33 0
-1146 36 0
1146 33 -36 0
-1147 -33 0
-1147 37 0
1147 33 -37 0
-1148 -33 0
-1148 38 0
1148 33 -38 0
-1149 -33 0
-1149 39 0
1149 33 -39 0
-1150 -33 0
-1150 40 0
1150 33 -40 0
-1151 -33 0
-1151 41 0
1151 33 -41 0
-1152 -33 0
-1152 42 0
1152 33 -42 0
-1153 -33 0
-1153 43 0
1153 33 -43 0
-1154 -33 0
-1154 44 0
1154 33 -44 0
-1155 -33 0
-1155 45 0
1155 33 -45 0
-1156 -33 0
-1156 46 0
1156 33 -46 0
-1157 -33 0
-1157 47 0
1157 33 -47 0
-1158 62 0
-1158 -5 0
1158 -62 5 0
-1159 62 0
-1159 -20 0
1159 -62 20 0
-1160 62 0
-1160 -35 0
1160 -62 35 0
-1161 62 0
-1161 -49 0
1161 -62 49 0
-1162 62 0
-1162 87 0
1162 -62 -87 0
-1163 62 0
-1163 88 0
1163 -62 -88 0
-1164 62 0
-1164 89 0
1164 -62 -89 0
-1165 62 0
-1165 90 0
1165 -62 -90 0
-1166 62 0
-1166 91 0
1166 -62 -91 0
-1167 62 0
-1167 92 0
1167 -62 -92 0
-1168 62 0
-1168 93 0
1168 -62 -93 0
-1169 62 0
-1169 94 0
1169 -62 -94 0
-1170 62 0
-1170 95 0
1170 -62 -95 0
-1171 62 0
-1171 96 0
1171 -62 -96 0
-1172 62 0
-1172 97 0
1172 -62 -97 0
-1173 63 0
-1173 -6 0
1173 -63 6 0
-1174 63 0
-1174 -21 0
1174 -63 21 0
-1175 63 0
-1175 -36 0
1175 -63 36 0
-1176 63 0
-1176 -50 0
1176 -63 50 0
-1177 63 0
-1177 -75 0
1177 -63 75 0
-1178 63 0
-1178 98 0
1178 -63 -98 0
-1179 63 0
-1179 99 0
1179 -63 -99 0
-1180 63 0
-1180 100 0
1180 -63 -100 0
-1181 63 0
-1181 101 0
1181 -63 -101 0
-1182 63 0
-1182 102 0
1182 -63 -102 0
-1183 63 0
-1183 103 0
1183 -63 -103 0
-1184 63 0
-1184 104 0
1184 -63 -104 0
-1185 63 0
-1185 105 0
1185 -63 -105 0
-1186 63 0
-1186 106 0
1186 -63 -106 0
-1187 63 0
-1187 107 0
1187 -63 -107 0
-1188 64 0
-1188 -7 0
1188 -64 7 0
-1189 64 0
-1189 -22 0
1189 -64 22 0
-1190 64 0
-1190 -37 0
1190 -64 37 0
-1191 64 0
-1191 -51 0
1191 -64 51 0
-1192 64 0
-1192 -76 0
1192 -64 76 0
-1193 64 0
-1193 -87 0
1193 -64 87 0
-1194 64 0
-1194 108 0
1194 -64 -108 0
-1195 64 0
-1195 109 0
1195 -64 -109 0
-1196 64 0
-1196 110 0
1196 -64 -110 0
-1197 64 0
-1197 111 0
1197 -64 -111 0
-1198 64 0
-1198 112 0
1198 -64 -112 0
-1199 64 0
-1199 113 0
1199 -64 -113 0
-1200 64 0
-1200 114 0
1200 -64 -114 0
-1201 64 0
-1201 115 0
1201 -64 -115 0
-1202 64 0
-1202 116 0
1202 -64 -116 0
-1203 65 0
-1203 -8 0
1203 -65 8 0
-1204 65 0
-1204 -23 0
1204 -65 23 0
-1205 65 0
-1205 -38 0
1205 -65 38 0
-1206 65 0
-1206 -52 0
1206 -65 52 0
-1207 65 0
-1207 -77 0
1207 -65 77 0
-1208 65 0
-1208 -88 0
1208 -65 88 0
-1209 65 0
-1209 -98 0
1209 -65 98 0
-1210 65 0
-1210 117 0
1210 -65 -117 0
-1211 65 0
-1211 118 0
1211 -65 -118 0
-1212 65 0
-1212 119 0
1212 -65 -119 0
-1213 65 0
-1213 120 0
1213 -65 -120 0
-1214 65 0
-1214 121 0
1214 -65 -121 0
-1215 65 0
-1215 122 0
1215 -65 -122 0
-1216 65 0
-1216 123 0
1216 -65 -123 0
-1217 65 0
-1217 124 0
1217 -65 -124 0
-1218 66 0
-1218 -9 0
1218 -66 9 0
-1219 66 0
-1219 -24 0
1219 -66 24 0
-1220 66 0
-1220 -39 0
1220 -66 39 0
-1221 66 0
-1221 -53 0
1221 -66 53 0
-1222 66 0
-1222 -78 0
1222 -66 78 0
-1223 66 0
-1223 -89 0
1223 -66 89 0
-1224 66 0
-1224 -99 0
1224 -66 99 0
-1225 66 0
-1225 -108 0
1225 -66 108 0
-1226 66 0
-1226 125 0
1226 -66 -125 0
-1227 66 0
-1227 126 0
1227 -66 -126 0
-1228 66 0
-1228 127 0
1228 -66 -127 0
-1229 66 0
-1229 128 0
1229 -66 -128 0
-1230 66 0
-1230 129 0
1230 -66 -129 0
-1231 66 0
-1231 130 0
1231 -66 -130 0
-1232 66 0
-1232 131 0
1232 -66 -131 0
-1233 67 0
-1233 -10 0
1233 -67 10 0
-1234 67 0
-1234 -25 0
1234 -67 25 0
-1235 67 0
-1235 -40 0
1235 -67 40 0
-1236 67 0
-1236 -54 0
1236 -67 54 0
-1237 67 0
-1237 -79 0
1237 -67 79 0
-1238 67 0
-1238 -90 0
1238 -67 90 0
-1239 67 0
-1239 -100 0
1239 -67 100 0
-1240 67 0
-1240 -109 0
1240 -67 109 0
-1241 67 0
-1241 -117 0
1241 -67 117 0
-1242 67 0
-1242 132 0
1242 -67 -132 0
-1243 67 0
-1243 133 0
1243 -67 -133 0
-1244 67 0
-1244 134 0
1244 -67 -134 0
-1245 67 0
-1245 135 0
1245 -67 -135 0
-1246 67 0
-1246 136 0
1246 -67 -136 0
-1247 67 0
-1247 137 0
1247 -67 -137 0
-1248 68 0
-1248 -11 0
1248 -68 11 0
-1249 68 0
-1249 -26 0
1249 -68 26 0
-1250 68 0
-1250 -41 0
1250 -68 41 0
-1251 68 0
-1251 -55 0
1251 -68 55 0
-1252 68 0
-1252 -80 0
1252 -68 80 0
-1253 68 0
-1253 -91 0
1253 -68 91 0
-1254 68 0
-1254 -101 0
1254 -68 101 0
-1255 68 0
-1255 -110 0
1255 -68 110 0
-1256 68 0
-1256 -118 0
1256 -68 118 0
-1257 68 0
-1257 -125 0
1257 -68 125 0
-1258 68 0
-1258 138 0
1258 -68 -138 0
-1259 68 0
-1259 139 0
1259 -68 -139 0
-1260 68 0
-1260 140 0
1260 -68 -140 0
-1261 68 0
-1261 141 0
1261 -68 -141 0
-1262 68 0
-1262 142 0
1262 -68 -142 0
-1263 69 0
-1263 -12 0
1263 -69 12 0
-1264 69 0
-1264 -27 0
1264 -69 27 0
-1265 69 0
-1265 -42 0
1265 -69 42 0
-1266 69 0
-1266 -56 0
1266 -69 56 0
-1267 69 0
-1267 -81 0
1267 -69 81 0
-1268 69 0
-1268 -92 0
1268 -69 92 0
-1269 69 0
-1269 -102 0
1269 -69 102 0
-1270 69 0
-1270 -111 0
1270 -69 111 0
-1271 69 0
-1271 -119 0
1271 -69 119 0
-1272 69 0
-1272 -126 0
1272 -69 126 0
-1273 69 0
-1273 -132 0
1273 -69 132 0
-1274 69 0
-1274 143 0
1274 -69 -143 0
-1275 69 0
-1275 144 0
1275 -69 -144 0
-1276 69 0
-1276 145 0
1276 -69 -145 0
-1277 69 0
-1277 146 0
1277 -69 -146 0
-1278 70 0
-1278 -13 0
1278 -70 13 0
-1279 70 0
-1279 -28 0
1279 -70 28 0
-1280 70 0
-1280 -43 0
1280 -70 43 0
-1281 70 0
-1281 -57 0
1281 -70 57 0
-1282 70 0
-1282 -82 0
1282 -70 82 0
-1283 70 0
-1283 -93 0
1283 -70 93 0
-1284 70 0
-1284 -103 0
1284 -70 103 0
-1285 70 0
-1285 -112 0
1285 -70 112 0
-1286 70 0
-1286 -120 0
1286 -70 120 0
-1287 70 0
-1287 -127 0
1287 -70 127 0
-1288 70 0
-1288 -133 0
1288 -70 133 0
-1289 70 0
-1289 -138 0
1289 -70 138 0
-1290 70 0
-1290 147 0
1290 -70 -147 0
-1291 70 0
-1291 148 0
1291 -70 -148 0
-1292 70 0
-1292 149 0
1292 -70 -149 0
-1293 71 0
-1293 -14 0
1293 -71 14 0
-1294 71 0
-1294 -29 0
1294 -71 29 0
-1295 71 0
-1295 -44 0
1295 -71 44 0
-1296 71 0
-1296 -58 0
1296 -71 58 0
-1297 71 0
-1297 -83 0
1297 -71 83 0
-1298 71 0
-1298 -94 0
1298 -71 94 0
-1299 71 0
-1299 -104 0
1299 -71 104 0
-1300 71 0
-1300 -113 0
1300 -71 113 0
-1301 71 0
-1301 -121 0
1301 -71 121 0
-1302 71 0
-1302 -128 0
1302 -71 128 0
-1303 71 0
-1303 -134 0
1303 -71 134 0
-1304 71 0
-1304 -139 0
1304 -71 139 0
-1305 71 0
-1305 -143 0
1305 -71 143 0
-1306 71 0
-1306 150 0
1306 -71 -150 0
-1307 71 0
-1307 151 0
1307 -71 -151 0
-1308 72 0
-1308 -15 0
1308 -72 15 0
-1309 72 0
-1309 -30 0
1309 -72 30 0
-1310 72 0
-1310 -45 0
1310 -72 45 0
-1311 72 0
-1311 -59 0
1311 -72 59 0
-1312 72 0
-1312 -84 0
1312 -72 84 0
-1313 72 0
-1313 -95 0
1313 -72 95 0
-1314 72 0
-1314 -105 0
1314 -72 105 0
-1315 72 0
-1315 -114 0
1315 -72 114 0
-1316 72 0
-1316 -122 0
1316 -72 122 0
-1317 72 0
-1317 -129 0
1317 -72 129 0
-1318 72 0
-1318 -135 0
1318 -72 135 0
-1319 72 0
-1319 -140 0
1319 -72 140 0
-1320 72 0
-1320 -144 0
1320 -72 144 0
-1321 72 0
-1321 -147 0
1321 -72 147 0
-1322 72 0
-1322 152 0
1322 -72 -152 0
-1323 73 0
-1323 -16 0
1323 -73 16 0
-1324 73 0
-1324 -31 0
1324 -73 31 0
-1325 73 0
-1325 -46 0
1325 -73 46 0
-1326 73 0
-1326 -60 0
1326 -73 60 0
-1327 73 0
-1327 -85 0
1327 -73 85 0
-1328 73 0
-1328 -96 0
1328 -73 96 0
-1329 73 0
-1329 -106 0
1329 -73 106 0
-1330 73 0
-1330 -115 0
1330 -73 115 0
-1331 73 0
-1331 -123 0
1331 -73 123 0
-1332 73 0
-1332 -130 0
1332 -73 130 0
-1333 73 0
-1333 -136 0
1333 -73 136 0
-1334 73 0
-1334 -141 0
1334 -73 141 0
-1335 73 0
-1335 -145 0
1335 -73 145 0
-1336 73 0
-1336 -148 0
1336 -73 148 0
-1337 73 0
-1337 -150 0
1337 -73 150 0
-1338 74 0
-1338 -32 0
1338 -74 32 0
-1339 74 0
-1339 -47 0
1339 -74 47 0
-1340 74 0
-1340 -61 0
1340 -74 61 0
-1341 74 0
-1341 -86 0
1341 -74 86 0
-1342 74 0
-1342 -97 0
1342 -74 97 0
-1343 74 0
-1343 -107 0
1343 -74 107 0
-1344 74 0
-1344 -116 0
1344 -74 116 0
-1345 74 0
-1345 -124 0
1345 -74 124 0
-1346 74 0
-1346 -131 0
1346 -74 131 0
-1347 74 0
-1347 -137 0
1347 -74 137 0
-1348 74 0
-1348 -142 0
1348 -74 142 0
-1349 74 0
-1349 -146 0
1349 -74 146 0
-1350 74 0
-1350 -149 0
1350 -74 149 0
-1351 74 0
-1351 -151 0
1351 -74 151 0
-1352 74 0
-1352 -152 0
1352 -74 152 0
-1353 -4 0
-1353 1 0
1353 4 -1 0
-1354 -4 0
-1354 2 0
1354 4 -2 0
-1355 -4 0
-1355 3 0
1355 4 -3 0
-1356 -4 0
-1356 5 0
1356 4 -5 0
-1357 -4 0
-1357 6 0
1357 4 -6 0
-1358 -4 0
-1358 7 0
1358 4 -7 0
-1359 -4 0
-1359 8 0
1359 4 -8 0
-1360 -4 0
-1360 9 0
1360 4 -9 0
-1361 -4 0
-1361 10 0
1361 4 -10 0
-1362 -4 0
-1362 11 0
1362 4 -11 0
-1363 -4 0
-1363 12 0
1363 4 -12 0
-1364 -4 0
-1364 13 0
1364 4 -13 0
-1365 -4 0
-1365 14 0
1365 4 -14 0
-1366 -4 0
-1366 15 0
1366 4 -15 0
-1367 -4 0
-1367 16 0
1367 4 -16 0
-1368 -19 0
-1368 17 0
1368 19 -17 0
-1369 -19 0
-1369 18 0
1369 19 -18 0
-1370 -19 0
-1370 20 0
1370 19 -20 0
-1371 -19 0
-1371 21 0
1371 19 -21 0
-1372 -19 0
-1372 22 0
1372 19 -22 0
-1373 -19 0
-1373 23 0
1373 19 -23 0
-1374 -19 0
-1374 24 0
1374 19 -24 0
-1375 -19 0
-1375 25 0
1375 19 -25 0
-1376 -19 0
-1376 26 0
1376 19 -26 0
-1377 -19 0
-1377 27 0
1377 19 -27 0
-1378 -19 0
-1378 28 0
1378 19 -28 0
-1379 -19 0
-1379 29 0
1379 19 -29 0
-1380 -19 0
-1380 30 0
1380 19 -30 0
-1381 -19 0
-1381 31 0
1381 19 -31 0
-1382 -19 0
-1382 32 0
1382 19 -32 0
-1383 -34 0
-1383 -1 0
1383 34 1 0
-1384 -34 0
-1384 33 0
1384 34 -33 0
-1385 -34 0
-1385 35 0
1385 34 -35 0
-1386 -34 0
-1386 36 0
1386 34 -36 0
-1387 -34 0
-1387 37 0
1387 34 -37 0
-1388 -34 0
-1388 38 0
1388 34 -38 0
-1389 -34 0
-1389 39 0
1389 34 -39 0
-1390 -34 0
-1390 40 0
1390 34 -40 0
-1391 -34 0
-1391 41 0
1391 34 -41 0
-1392 -34 0
-1392 42 0
1392 34 -42 0
-1393 -34 0
-1393 43 0
1393 34 -43 0
-1394 -34 0
-1394 44 0
1394 34 -44 0
-1395 -34 0
-1395 45 0
1395 34 -45 0
-1396 -34 0
-1396 46 0
1396 34 -46 0
-1397 -34 0
-1397 47 0
1397 34 -47 0
-1398 -48 0
-1398 -2 0
1398 48 2 0
-1399 -48 0
-1399 -17 0
1399 48 17 0
-1400 -48 0
-1400 49 0
1400 48 -49 0
-1401 -48 0
-1401 50 0
1401 48 -50 0
-1402 -48 0
-1402 51 0
1402 48 -51 0
-1403 -48 0
-1403 52 0
1403 48 -52 0
-1404 -48 0
-1404 53 0
1404 48 -53 0
-1405 -48 0
-1405 54 0
1405 48 -54 0
-1406 -48 0
-1406 55 0
1406 48 -55 0
-1407 -48 0
-1407 56 0
1407 48 -56 0
-1408 -48 0
-1408 57 0
1408 48 -57 0
-1409 -48 0
-1409 58 0
1409 48 -58 0
-1410 -48 0
-1410 59 0
1410 48 -59 0
-1411 -48 0
-1411 60 0
1411 48 -60 0
-1412 -48 0
-1412 61 0
1412 48 -61 0
-1413 75 0
-1413 -6 0
1413 -75 6 0
-1414 75 0
-1414 -21 0
1414 -75 21 0
-1415 75 0
-1415 -36 0
1415 -75 36 0
-1416 75 0
-1416 -50 0
1416 -75 50 0
-1417 75 0
-1417 -63 0
1417 -75 63 0
-1418 75 0
-1418 98 0
1418 -75 -98 0
-1419 75 0
-1419 99 0
1419 -75 -99 0
-1420 75 0
-1420 100 0
1420 -75 -100 0
-1421 75 0
-1421 101 0
1421 -75 -101 0
-1422 75 0
-1422 102 0
1422 -75 -102 0
-1423 75 0
-1423 103 0
1423 -75 -103 0
-1424 75 0
-1424 104 0
1424 -75 -104 0
-1425 75 0
-1425 105 0
1425 -75 -105 0
-1426 75 0
-1426 106 0
1426 -75 -106 0
-1427 75 0
-1427 107 0
1427 -75 -107 0
-1428 76 0
-1428 -7 0
1428 -76 7 0
-1429 76 0
-1429 -22 0
1429 -76 22 0
-1430 76 0
-1430 -37 0
1430 -76 37 0
-1431 76 0
-1431 -51 0
1431 -76 51 0
-1432 76 0
-1432 -64 0
1432 -76 64 0
-1433 76 0
-1433 -87 0
1433 -76 87 0
-1434 76 0
-1434 108 0
1434 -76 -108 0
-1435 76 0
-1435 109 0
1435 -76 -109 0
-1436 76 0
-1436 110 0
1436 -76 -110 0
-1437 76 0
-1437 111 0
1437 -76 -111 0
-1438 76 0
-1438 112 0
1438 -76 -112 0
-1439 76 0
-1439 113 0
1439 -76 -113 0
-1440 76 0
-1440 114 0
1440 -76 -114 0
-1441 76 0
-1441 115 0
1441 -76 -115 0
-1442 76 0
-1442 116 0
1442 -76 -116 0
-1443 77 0
-1443 -8 0
1443 -77 8 0
-1444 77 0
-1444 -23 0
1444 -77 23 0
-1445 77 0
-1445 -38 0
1445 -77 38 0
-1446 77 0
-1446 -52 0
1446 -77 52 0
-1447 77 0
-1447 -65 0
1447 -77 65 0
-1448 77 0
-1448 -88 0
1448 -77 88 0
-1449 77 0
-1449 -98 0
1449 -77 98 0
-1450 77 0
-1450 117 0
1450 -77 -117 0
-1451 77 0
-1451 118 0
1451 -77 -118 0
-1452 77 0
-1452 119 0
1452 -77 -119 0
-1453 77 0
-1453 120 0
1453 -77 -120 0
-1454 77 0
-1454 121 0
1454 -77 -121 0
-1455 77 0
-1455 122 0
1455 -77 -122 0
-1456 77 0
-1456 123 0
1456 -77 -123 0
-1457 77 0
-1457 124 0
1457 -77 -124 0
-1458 78 0
-1458 -9 0
1458 -78 9 0
-1459 78 0
-1459 -24 0
1459 -78 24 0
-1460 78 0
-1460 -39 0
1460 -78 39 0
-1461 78 0
-1461 -53 0
1461 -78 53 0
-1462 78 0
-1462 -66 0
1462 -78 66 0
-1463 78 0
-1463 -89 0
1463 -78 89 0
-1464 78 0
-1464 -99 0
1464 -78 99 0
-1465 78 0
-1465 -108 0
1465 -78 108 0
-1466 78 0
-1466 125 0
1466 -78 -125 0
-1467 78 0
-1467 126 0
1467 -78 -126 0
-1468 78 0
-1468 127 0
1468 -78 -127 0
-1469 78 0
-1469 128 0
1469 -78 -128 0
-1470 78 0
-1470 129 0
1470 -78 -129 0
-1471 78 0
-1471 130 0
1471 -78 -130 0
-1472 78 0
-1472 131 0
1472 -78 -131 0
-1473 79 0
-1473 -10 0
1473 -79 10 0
-1474 79 0
-1474 -25 0
1474 -79 25 0
-1475 79 0
-1475 -40 0
1475 -79 40 0
-1476 79 0
-1476 -54 0
1476 -79 54 0
-1477 79 0
-1477 -67 0
1477 -79 67 0
-1478 79 0
-1478 -90 0
1478 -79 90 0
-1479 79 0
-1479 -100 0
1479 -79 100 0
-1480 79 0
-1480 -109 0
1480 -79 109 0
-1481 79 0
-1481 -117 0
1481 -79 117 0
-1482 79 0
-1482 132 0
1482 -79 -132 0
-1483 79 0
-1483 133 0
1483 -79 -133 0
-1484 79 0
-1484 134 0
1484 -79 -134 0
-1485 79 0
-1485 135 0
1485 -79 -135 0
-1486 79 0
-1486 136 0
1486 -79 -136 0
-1487 79 0
-1487 137 0
1487 -79 -137 0
-1488 80 0
-1488 -11 0
1488 -80 11 0
-1489 80 0
-1489 -26 0
1489 -80 26 0
-1490 80 0
-1490 -41 0
1490 -80 41 0
-1491 80 0
-1491 -55 0
1491 -80 55 0
-1492 80 0
-1492 -68 0
1492 -80 68 0
-1493 80 0
-1493 -91 0
1493 -80 91 0
-1494 80 0
-1494 -101 0
1494 -80 101 0
-1495 80 0
-1495 -110 0
1495 -80 110 0
-1496 80 0
-1496 -118 0
1496 -80 118 0
-1497 80 0
-1497 -125 0
1497 -80 125 0
-1498 80 0
-1498 138 0
1498 -80 -138 0
-1499 80 0
-1499 139 0
1499 -80 -139 0
-1500 80 0
-1500 140 0
1500 -80 -140 0
-1501 80 0
-1501 141 0
1501 -80 -141 0
-1502 80 0
-1502 142 0
1502 -80 -142 0
-1503 81 0
-1503 -12 0
1503 -81 12 0
-1504 81 0
-1504 -27 0
1504 -81 27 0
-1505 81 0
-1505 -42 0
1505 -81 42 0
-1506 81 0
-1506 -56 0
1506 -81 56 0
-1507 81 0
-1507 -69 0
1507 -81 69 0
-1508 81 0
-1508 -92 0
1508 -81 92 0
-1509 81 0
-1509 -102 0
1509 -81 102 0
-1510 81 0
-1510 -111 0
1510 -81 111 0
-1511 81 0
-1511 -119 0
1511 -81 119 0
-1512 81 0
-1512 -126 0
1512 -81 126 0
-1513 81 0
-1513 -132 0
1513 -81 132 0
-1514 81 0
-1514 143 0
1514 -81 -143 0
-1515 81 0
-1515 144 0
1515 -81 -144 0
-1516 81 0
-1516 145 0
1516 -81 -145 0
-1517 81 0
-1517 146 0
1517 -81 -146 0
-1518 82 0
-1518 -13 0
1518 -82 13 0
-1519 82 0
-1519 -28 0
1519 -82 28 0
-1520 82 0
-1520 -43 0
1520 -82 43 0
-1521 82 0
-1521 -57 0
1521 -82 57 0
-1522 82 0
-1522 -70 0
1522 -82 70 0
-1523 82 0
-1523 -93 0
1523 -82 93 0
-1524 82 0
-1524 -103 0
1524 -82 103 0
-1525 82 0
-1525 -112 0
1525 -82 112 0
-1526 82 0
-1526 -120 0
1526 -82 120 0
-1527 82 0
-1527 -127 0
1527 -82 127 0
-1528 82 0
-1528 -133 0
1528 -82 133 0
-1529 82 0
-1529 -138 0
1529 -82 138 0
-1530 82 0
-1530 147 0
1530 -82 -147 0
-1531 82 0
-1531 148 0
1531 -82 -148 0
-1532 82 0
-1532 149 0
1532 -82 -149 0
-1533 83 0
-1533 -14 0
1533 -83 14 0
-1534 83 0
-1534 -29 0
1534 -83 29 0
-1535 83 0
-1535 -44 0
1535 -83 44 0
-1536 83 0
-1536 -58 0
1536 -83 58 0
-1537 83 0
-1537 -71 0
1537 -83 71 0
-1538 83 0
-1538 -94 0
1538 -83 94 0
-1539 83 0
-1539 -104 0
1539 -83 104 0
-1540 83 0
-1540 -113 0
1540 -83 113 0
-1541 83 0
-1541 -121 0
1541 -83 121 0
-1542 83 0
-1542 -128 0
1542 -83 128 0
-1543 83 0
-1543 -134 0
1543 -83 134 0
-1544 83 0
-1544 -139 0
1544 -83 139 0
-1545 83 0
-1545 -143 0
1545 -83 143 0
-1546 83 0
-1546 150 0
1546 -83 -150 0
-1547 83 0
-1547 151 0
1547 -83 -151 0
-1548 84 0
-1548 -15 0
1548 -84 15 0
-1549 84 0
-1549 -30 0
1549 -84 30 0
-1550 84 0
-1550 -45 0
1550 -84 45 0
-1551 84 0
-1551 -59 0
1551 -84 59 0
-1552 84 0
-1552 -72 0
1552 -84 72 0
-1553 84 0
-1553 -95 0
1553 -84 95 0
-1554 84 0
-1554 -105 0
1554 -84 105 0
-1555 84 0
-1555 -114 0
1555 -84 114 0
-1556 84 0
-1556 -122 0
1556 -84 122 0
-1557 84 0
-1557 -129 0
1557 -84 129 0
-1558 84 0
-1558 -135 0
1558 -84 135 0
-1559 84 0
-1559 -140 0
1559 -84 140 0
-1560 84 0
-1560 -144 0
1560 -84 144 0
-1561 84 0
-1561 -147 0
1561 -84 147 0
-1562 84 0
-1562 152 0
1562 -84 -152 0
-1563 85 0
-1563 -16 0
1563 -85 16 0
-1564 85 0
-1564 -31 0
1564 -85 31 0
-1565 85 0
-1565 -46 0
1565 -85 46 0
-1566 85 0
-1566 -60 0
1566 -85 60 0
-1567 85 0
-1567 -73 0
1567 -85 73 0
-1568 85 0
-1568 -96 0
1568 -85 96 0
-1569 85 0
-1569 -106 0
1569 -85 106 0
-1570 85 0
-1570 -115 0
1570 -85 115 0
-1571 85 0
-1571 -123 0
1571 -85 123 0
-1572 85 0
-1572 -130 0
1572 -85 130 0
-1573 85 0
-1573 -136 0
1573 -85 136 0
-1574 85 0
-1574 -141 0
1574 -85 141 0
-1575 85 0
-1575 -145 0
1575 -85 145 0
-1576 85 0
-1576 -148 0
1576 -85 148 0
-1577 85 0
-1577 -150 0
1577 -85 150 0
-1578 86 0
-1578 -32 0
1578 -86 32 0
-1579 86 0
-1579 -47 0
1579 -86 47 0
-1580 86 0
-1580 -61 0
1580 -86 61 0
-1581 86 0
-1581 -74 0
1581 -86 74 0
-1582 86 0
-1582 -97 0
1582 -86 97 0
-1583 86 0
-1583 -107 0
1583 -86 107 0
-1584 86 0
-1584 -116 0
1584 -86 116 0
-1585 86 0
-1585 -124 0
1585 -86 124 0
-1586 86 0
-1586 -131 0
1586 -86 131 0
-1587 86 0
-1587 -137 0
1587 -86 137 0
-1588 86 0
-1588 -142 0
1588 -86 142 0
-1589 86 0
-1589 -146 0
1589 -86 146 0
-1590 86 0
-1590 -149 0
1590 -86 149 0
-1591 86 0
-1591 -151 0
1591 -86 151 0
-1592 86 0
-1592 -152 0
1592 -86 152 0
-1593 -5 0
-1593 1 0
1593 5 -1 0
-1594 -5 0
-1594 2 0
1594 5 -2 0
-1595 -5 0
-1595 3 0
1595 5 -3 0
-1596 -5 0
-1596 4 0
1596 5 -4 0
-1597 -5 0
-1597 6 0
1597 5 -6 0
-1598 -5 0
-1598 7 0
1598 5 -7 0
-1599 -5 0
-1599 8 0
1599 5 -8 0
-1600 -5 0
-1600 9 0
1600 5 -9 0
-1601 -5 0
-1601 10 0
1601 5 -10 0
-1602 -5 0
-1602 11 0
1602 5 -11 0
-1603 -5 0
-1603 12 0
1603 5 -12 0
-1604 -5 0
-1604 13 0
1604 5 -13 0
-1605 -5 0
-1605 14 0
1605 5 -14 0
-1606 -5 0
-1606 15 0
1606 5 -15 0
-1607 -5 0
-1607 16 0
1607 5 -16 0
-1608 -20 0
-1608 17 0
1608 20 -17 0
-1609 -20 0
-1609 18 0
1609 20 -18 0
-1610 -20 0
-1610 19 0
1610 20 -19 0
-1611 -20 0
-1611 21 0
1611 20 -21 0
-1612 -20 0
-1612 22 0
1612 20 -22 0
-1613 -20 0
-1613 23 0
1613 20 -23 0
-1614 -20 0
-1614 24 0
1614 20 -24 0
-1615 -20 0
-1615 25 0
1615 20 -25 0
-1616 -20 0
-1616 26 0
1616 20 -26 0
-1617 -20 0
-1617 27 0
1617 20 -27 0
-1618 -20 0
-1618 28 0
1618 20 -28 0
-1619 -20 0
-1619 29 0
1619 20 -29 0
-1620 -20 0
-1620 30 0
1620 20 -30 0
-1621 -20 0
-1621 31 0
1621 20 -31 0
-1622 -20 0
-1622 32 0
1622 20 -32 0
-1623 -35 0
-1623 -1 0
1623 35 1 0
-1624 -35 0
-1624 33 0
1624 35 -33 0
-1625 -35 0
-1625 34 0
1625 35 -34 0
-1626 -35 0
-1626 36 0
1626 35 -36 0
-1627 -35 0
-1627 37 0
1627 35 -37 0
-1628 -35 0
-1628 38 0
1628 35 -38 0
-1629 -35 0
-1629 39 0
1629 35 -39 0
-1630 -35 0
-1630 40 0
1630 35 -40 0
-1631 -35 0
-1631 41 0
1631 35 -41 0
-1632 -35 0
-1632 42 0
1632 35 -42 0
-1633 -35 0
-1633 43 0
1633 35 -43 0
-1634 -35 0
-1634 44 0
1634 35 -44 0
-1635 -35 0
-1635 45 0
1635 35 -45 0
-1636 -35 0
-1636 46 0
1636 35 -46 0
-1637 -35 0
-1637 47 0
1637 35 -47 0
-1638 -49 0
-1638 -2 0
1638 49 2 0
-1639 -49 0
-1639 -17 0
1639 49 17 0
-1640 -49 0
-1640 48 0
1640 49 -48 0
-1641 -49 0
-1641 50 0
1641 49 -50 0
-1642 -49 0
-1642 51 0
1642 49 -51 0
-1643 -49 0
-1643 52 0
1643 49 -52 0
-1644 -49 0
-1644 53 0
1644 49 -53 0
-1645 -49 0
-1645 54 0
1645 49 -54 0
-1646 -49 0
-1646 55 0
1646 49 -55 0
-1647 -49 0
-1647 56 0
1647 49 -56 0
-1648 -49 0
-1648 57 0
1648 49 -57 0
-1649 -49 0
-1649 58 0
1649 49 -58 0
-1650 -49 0
-1650 59 0
1650 49 -59 0
-1651 -49 0
-1651 60 0
1651 49 -60 0
-1652 -49 0
-1652 61 0
1652 49 -61 0
-1653 -62 0
-1653 -3 0
1653 62 3 0
-1654 -62 0
-1654 -18 0
1654 62 18 0
-1655 -62 0
-1655 -33 0
1655 62 33 0
-1656 -62 0
-1656 63 0
1656 62 -63 0
-1657 -62 0
-1657 64 0
1657 62 -64 0
-1658 -62 0
-1658 65 0
1658 62 -65 0
-1659 -62 0
-1659 66 0
1659 62 -66 0
-1660 -62 0
-1660 67 0
1660 62 -67 0
-1661 -62 0
-1661 68 0
1661 62 -68 0
-1662 -62 0
-1662 69 0
1662 62 -69 0
-1663 -62 0
-1663 70 0
1663 62 -70 0
-1664 -62 0
-1664 71 0
1664 62 -71 0
-1665 -62 0
-1665 72 0
1665 62 -72 0
-1666 -62 0
-1666 73 0
1666 62 -73 0
-1667 -62 0
-1667 74 0
1667 62 -74 0
-1668 87 0
-1668 -7 0
1668 -87 7 0
-1669 87 0
-1669 -22 0
1669 -87 22 0
-1670 87 0
-1670 -37 0
1670 -87 37 0
-1671 87 0
-1671 -51 0
1671 -87 51 0
-1672 87 0
-1672 -64 0
1672 -87 64 0
-1673 87 0
-1673 -76 0
1673 -87 76 0
-1674 87 0
-1674 108 0
1674 -87 -108 0
-1675 87 0
-1675 109 0
1675 -87 -109 0
-1676 87 0
-1676 110 0
1676 -87 -110 0
-1677 87 0
-1677 111 0
1677 -87 -111 0
-1678 87 0
-1678 112 0
1678 -87 -112 0
-1679 87 0
-1679 113 0
1679 -87 -113 0
-1680 87 0
-1680 114 0
1680 -87 -114 0
-1681 87 0
-1681 115 0
1681 -87 -115 0
-1682 87 0
-1682 116 0
1682 -87 -116 0
-1683 88 0
-1683 -8 0
1683 -88 8 0
-1684 88 0
-1684 -23 0
1684 -88 23 0
-1685 88 0
-1685 -38 0
1685 -88 38 0
-1686 88 0
-1686 -52 0
1686 -88 52 0
-1687 88 0
-1687 -65 0
1687 -88 65 0
-1688 88 0
-1688 -77 0
1688 -88 77 0
-1689 88 0
-1689 -98 0
1689 -88 98 0
-1690 88 0
-1690 117 0
1690 -88 -117 0
-1691 88 0
-1691 118 0
1691 -88 -118 0
-1692 88 0
-1692 119 0
1692 -88 -119 0
-1693 88 0
-1693 120 0
1693 -88 -120 0
-1694 88 0
-1694 121 0
1694 -88 -121 0
-1695 88 0
-1695 122 0
1695 -88 -122 0
-1696 88 0
-1696 123 0
1696 -88 -123 0
-1697 88 0
-1697 124 0
1697 -88 -124 0
-1698 89 0
-1698 -9 0
1698 -89 9 0
-1699 89 0
-1699 -24 0
1699 -89 24 0
-1700 89 0
-1700 -39 0
1700 -89 39 0
-1701 89 0
-1701 -53 0
1701 -89 53 0
-1702 89 0
-1702 -66 0
1702 -89 66 0
-1703 89 0
-1703 -78 0
1703 -89 78 0
-1704 89 0
-1704 -99 0
1704 -89 99 0
-1705 89 0
-1705 -108 0
1705 -89 108 0
-1706 89 0
-1706 125 0
1706 -89 -125 0
-1707 89 0
-1707 126 0
1707 -89 -126 0
-1708 89 0
-1708 127 0
1708 -89 -127 0
-1709 89 0
-1709 128 0
1709 -89 -128 0
-1710 89 0
-1710 129 0
1710 -89 -129 0
-1711 89 0
-1711 130 0
1711 -89 -130 0
-1712 89 0
-1712 131 0
1712 -89 -131 0
-1713 90 0
-1713 -10 0
1713 -90 10 0
-1714 90 0
-1714 -25 0
1714 -90 25 0
-1715 90 0
-1715 -40 0
1715 -90 40 0
-1716 90 0
-1716 -54 0
1716 -90 54 0
-1717 90 0
-1717 -67 0
1717 -90 67 0
-1718 90 0
-1718 -79 0
1718 -90 79 0
-1719 90 0
-1719 -100 0
1719 -90 100 0
-1720 90 0
-1720 -109 0
1720 -90 109 0
-1721 90 0
-1721 -117 0
1721 -90 117 0
-1722 90 0
-1722 132 0
1722 -90 -132 0
-1723 90 0
-1723 133 0
1723 -90 -133 0
-1724 90 0
-1724 134 0
1724 -90 -134 0
-1725 90 0
-1725 135 0
1725 -90 -135 0
-1726 90 0
-1726 136 0
1726 -90 -136 0
-1727 90 0
-1727 137 0
1727 -90 -137 0
-1728 91 0
-1728 -11 0
1728 -91 11 0
-1729 91 0
-1729 -26 0
1729 -91 26 0
-1730 91 0
-1730 -41 0
1730 -91 41 0
-1731 91 0
-1731 -55 0
1731 -91 55 0
-1732 91 0
-1732 -68 0
1732 -91 68 0
-1733 91 0
-1733 -80 0
1733 -91 80 0
-1734 91 0
-1734 -101 0
1734 -91 101 0
-1735 91 0
-1735 -110 0
1735 -91 110 0
-1736 91 0
-1736 -118 0
1736 -91 118 0
-1737 91 0
-1737 -125 0
1737 -91 125 0
-1738 91 0
-1738 138 0
1738 -91 -138 0
-1739 91 0
-1739 139 0
1739 -91 -139 0
-1740 91 0
-1740 140 0
1740 -91 -140 0
-1741 91 0
-1741 141 0
1741 -91 -141 0
-1742 91 0
-1742 142 0
1742 -91 -142 0
-1743 92 0
-1743 -12 0
1743 -92 12 0
-1744 92 0
-1744 -27 0
1744 -92 27 0
-1745 92 0
-1745 -42 0
1745 -92 42 0
-1746 92 0
-1746 -56 0
1746 -92 56 0
-1747 92 0
-1747 -69 0
1747 -92 69 0
-1748 92 0
-1748 -81 0
1748 -92 81 0
-1749 92 0
-1749 -102 0
1749 -92 102 0
-1750 92 0
-1750 -111 0
1750 -92 111 0
-1751 92 0
-1751 -119 0
1751 -92 119 0
-1752 92 0
-1752 -126 0
1752 -92 126 0
-1753 92 0
-1753 -132 0
1753 -92 132 0
-1754 92 0
-1754 143 0
1754 -92 -143 0
-1755 92 0
-1755 144 0
1755 -92 -144 0
-1756 92 0
-1756 145 0
1756 -92 -145 0
-1757 92 0
-1757 146 0
1757 -92 -146 0
-1758 93 0
-1758 -13 0
1758 -93 13 0
-1759 93 0
-1759 -28 0
1759 -93 28 0
-1760 93 0
-1760 -43 0
1760 -93 43 0
-1761 93 0
-1761 -57 0
1761 -93 57 0
-1762 93 0
-1762 -70 0
1762 -93 70 0
-1763 93 0
-1763 -82 0
1763 -93 82 0
-1764 93 0
-1764 -103 0
1764 -93 103 0
-1765 93 0
-1765 -112 0
1765 -93 112 0
-1766 93 0
-1766 -120 0
1766 -93 120 0
-1767 93 0
-1767 -127 0
1767 -93 127 0
-1768 93 0
-1768 -133 0
1768 -93 133 0
-1769 93 0
-1769 -138 0
1769 -93 138 0
-1770 93 0
-1770 147 0
1770 -93 -147 0
-1771 93 0
-1771 148 0
1771 -93 -148 0
-1772 93 0
-1772 149 0
1772 -93 -149 0
-1773 94 0
-1773 -14 0
1773 -94 14 0
-1774 94 0
-1774 -29 0
1774 -94 29 0
-1775 94 0
-1775 -44 0
1775 -94 44 0
-1776 94 0
-1776 -58 0
1776 -94 58 0
-1777 94 0
-1777 -71 0
1777 -94 71 0
-1778 94 0
-1778 -83 0
1778 -94 83 0
-1779 94 0
-1779 -104 0
1779 -94 104 0
-1780 94 0
-1780 -113 0
1780 -94 113 0
-1781 94 0
-1781 -121 0
1781 -94 121 0
-1782 94 0
-1782 -128 0
1782 -94 128 0
-1783 94 0
-1783 -134 0
1783 -94 134 0
-1784 94 0
-1784 -139 0
1784 -94 139 0
-1785 94 0
-1785 -143 0
1785 -94 143 0
-1786 94 0
-1786 150 0
1786 -94 -150 0
-1787 94 0
-1787 151 0
1787 -94 -151 0
-1788 95 0
-1788 -15 0
1788 -95 15 0
-1789 95 0
-1789 -30 0
1789 -95 30 0
-1790 95 0
-1790 -45 0
1790 -95 45 0
-1791 95 0
-1791 -59 0
1791 -95 59 0
-1792 95 0
-1792 -72 0
1792 -95 72 0
-1793 95 0
-1793 -84 0
1793 -95 84 0
-1794 95 0
-1794 -105 0
1794 -95 105 0
-1795 95 0
-1795 -114 0
1795 -95 114 0
-1796 95 0
-1796 -122 0
1796 -95 122 0
-1797 95 0
-1797 -129 0
1797 -95 129 0
-1798 95 0
-1798 -135 0
1798 -95 135 0
-1799 95 0
-1799 -140 0
1799 -95 140 0
-1800 95 0
-1800 -144 0
1800 -95 144 0
-1801 95 0
-1801 -147 0
1801 -95 147 0
-1802 95 0
-1802 152 0
1802 -95 -152 0
-1803 96 0
-1803 -16 0
1803 -96 16 0
-1804 96 0
-1804 -31 0
1804 -96 31 0
-1805 96 0
-1805 -46 0
1805 -96 46 0
-1806 96 0
-1806 -60 0
1806 -96 60 0
-1807 96 0
-1807 -73 0
1807 -96 73 0
-1808 96 0
-1808 -85 0
1808 -96 85 0
-1809 96 0
-1809 -106 0
1809 -96 106 0
-1810 96 0
-1810 -115 0
1810 -96 115 0
-1811 96 0
-1811 -123 0
1811 -96 123 0
-1812 96 0
-1812 -130 0
1812 -96 130 0
-1813 96 0
-1813 -136 0
1813 -96 136 0
-1814 96 0
-1814 -141 0
1814 -96 141 0
-1815 96 0
-1815 -145 0
1815 -96 145 0
-1816 96 0
-1816 -148 0
1816 -96 148 0
-1817 96 0
-1817 -150 0
1817 -96 150 0
-1818 97 0
-1818 -32 0
1818 -97 32 0
-1819 97 0
-1819 -47 0
1819 -97 47 0
-1820 97 0
-1820 -61 0
1820 -97 61 0
-1821 97 0
-1821 -74 0
1821 -97 74 0
-1822 97 0
-1822 -86 0
1822 -97 86 0
-1823 97 0
-1823 -107 0
1823 -97 107 0
-1824 97 0
-1824 -116 0
1824 -97 116 0
-1825 97 0
-1825 -124 0
1825 -97 124 0
-1826 97 0
-1826 -131 0
1826 -97 131 0
-1827 97 0
-1827 -137 0
1827 -97 137 0
-1828 97 0
-1828 -142 0
1828 -97 142 0
-1829 97 0
-1829 -146 0
1829 -97 146 0
-1830 97 0
-1830 -149 0
1830 -97 149 0
-1831 97 0
-1831 -151 0
1831 -97 151 0
-1832 97 0
-1832 -152 0
1832 -97 152 0
-1833 -6 0
-1833 1 0
1833 6 -1 0
-1834 -6 0
-1834 2 0
1834 6 -2 0
-1835 -6 0
-1835 3 0
1835 6 -3 0
-1836 -6 0
-1836 4 0
1836 6 -4 0
-1837 -6 0
-1837 5 0
1837 6 -5 0
-1838 -6 0
-1838 7 0
1838 6 -7 0
-1839 -6 0
-1839 8 0
1839 6 -8 0
-1840 -6 0
-1840 9 0
1840 6 -9 0
-1841 -6 0
-1841 10 0
1841 6 -10 0
-1842 -6 0
-1842 11 0
1842 6 -11 0
-1843 -6 0
-1843 12 0
1843 6 -12 0
-1844 -6 0
-1844 13 0
1844 6 -13 0
-1845 -6 0
-1845 14 0
1845 6 -14 0
-1846 -6 0
-1846 15 0
1846 6 -15 0
-1847 -6 0
-1847 16 0
1847 6 -16 0
-1848 -21 0
-1848 17 0
1848 21 -17 0
-1849 -21 0
-1849 18 0
1849 21 -18 0
-1850 -21 0
-1850 19 0
1850 21 -19 0
-1851 -21 0
-1851 20 0
1851 21 -20 0
-1852 -21 0
-1852 22 0
1852 21 -22 0
-1853 -21 0
-1853 23 0
1853 21 -23 0
-1854 -21 0
-1854 24 0
1854 21 -24 0
-1855 -21 0
-1855 25 0
1855 21 -25 0
-1856 -21 0
-1856 26 0
1856 21 -26 0
-1857 -21 0
-1857 27 0
1857 21 -27 0
-1858 -21 0
-1858 28 0
1858 21 -28 0
-1859 -21 0
-1859 29 0
1859 21 -29 0
-1860 -21 0
-1860 30 0
1860 21 -30 0
-1861 -21 0
-1861 31 0
1861 21 -31 0
-1862 -21 0
-1862 32 0
1862 21 -32 0
-1863 -36 0
-1863 -1 0
1863 36 1 0
-1864 -36 0
-1864 33 0
1864 36 -33 0
-1865 -36 0
-1865 34 0
1865 36 -34 0
-1866 -36 0
-1866 35 0
1866 36 -35 0
-1867 -36 0
-1867 37 0
1867 36 -37 0
-1868 -36 0
-1868 38 0
1868 36 -38 0
-1869 -36 0
-1869 39 0
1869 36 -39 0
-1870 -36 0
-1870 40 0
1870 36 -40 0
-1871 -36 0
-1871 41 0
1871 36 -41 0
-1872 -36 0
-1872 42 0
1872 36 -42 0
-1873 -36 0
-1873 43 0
1873 36 -43 0
-1874 -36 0
-1874 44 0
1874 36 -44 0
-1875 -36 0
-1875 45 0
1875 36 -45 0
-1876 -36 0
-1876 46 0
1876 36 -46 0
-1877 -36 0
-1877 47 0
1877 36 -47 0
-1878 -50 0
-1878 -2 0
1878 50 2 0
-1879 -50 0
-1879 -17 0
1879 50 17 0
-1880 -50 0
-1880 48 0
1880 50 -48 0
-1881 -50 0
-1881 49 0
1881 50 -49 0
-1882 -50 0
-1882 51 0
1882 50 -51 0
-1883 -50 0
-1883 52 0
1883 50 -52 0
-1884 -50 0
-1884 53 0
1884 50 -53 0
-1885 -50 0
-1885 54 0
1885 50 -54 0
-1886 -50 0
-1886 55 0
1886 50 -55 0
-1887 -50 0
-1887 56 0
1887 50 -56 0
-1888 -50 0
-1888 57 0
1888 50 -57 0
-1889 -50 0
-1889 58 0
1889 50 -58 0
-1890 -50 0
-1890 59 0
1890 50 -59 0
-1891 -50 0
-1891 60 0
1891 50 -60 0
-1892 -50 0
-1892 61 0
1892 50 -61 0
-1893 -63 0
-1893 -3 0
1893 63 3 0
-1894 -63 0
-1894 -18 0
1894 63 18 0
-1895 -63 0
-1895 -33 0
1895 63 33 0
-1896 -63 0
-1896 62 0
1896 63 -62 0
-1897 -63 0
-1897 64 0
1897 63 -64 0
-1898 -63 0
-1898 65 0
1898 63 -65 0
-1899 -63 0
-1899 66 0
1899 63 -66 0
-1900 -63 0
-1900 67 0
1900 63 -67 0
-1901 -63 0
-1901 68 0
1901 63 -68 0
-1902 -63 0
-1902 69 0
1902 63 -69 0
-1903 -63 0
-1903 70 0
1903 63 -70 0
-1904 -63 0
-1904 71 0
1904 63 -71 0
-1905 -63 0
-1905 72 0
1905 63 -72 0
-1906 -63 0
-1906 73 0
1906 63 -73 0
-1907 -63 0
-1907 74 0
1907 63 -74 0
-1908 -75 0
-1908 -4 0
1908 75 4 0
-1909 -75 0
-1909 -19 0
1909 75 19 0
-1910 -75 0
-1910 -34 0
1910 75 34 0
-1911 -75 0
-1911 -48 0
1911 75 48 0
-1912 -75 0
-1912 76 0
1912 75 -76 0
-1913 -75 0
-1913 77 0
1913 75 -77 0
-1914 -75 0
-1914 78 0
1914 75 -78 0
-1915 -75 0
-1915 79 0
1915 75 -79 0
-1916 -75 0
-1916 80 0
1916 75 -80 0
-1917 -75 0
-1917 81 0
1917 75 -81 0
-1918 -75 0
-1918 82 0
1918 75 -82 0
-1919 -75 0
-1919 83 0
1919 75 -83 0
-1920 -75 0
-1920 84 0
1920 75 -84 0
-1921 -75 0
-1921 85 0
1921 75 -85 0
-1922 -75 0
-1922 86 0
1922 75 -86 0
-1923 98 0
-1923 -8 0
1923 -98 8 0
-1924 98 0
-1924 -23 0
1924 -98 23 0
-1925 98 0
-1925 -38 0
1925 -98 38 0
-1926 98 0
-1926 -52 0
1926 -98 52 0
-1927 98 0
-1927 -65 0
1927 -98 65 0
-1928 98 0
-1928 -77 0
1928 -98 77 0
-1929 98 0
-1929 -88 0
1929 -98 88 0
-1930 98 0
-1930 117 0
1930 -98 -117 0
-1931 98 0
-1931 118 0
1931 -98 -118 0
-1932 98 0
-1932 119 0
1932 -98 -119 0
-1933 98 0
-1933 120 0
1933 -98 -120 0
-1934 98 0
-1934 121 0
1934 -98 -121 0
-1935 98 0
-1935 122 0
1935 -98 -122 0
-1936 98 0
-1936 123 0
1936 -98 -123 0
-1937 98 0
-1937 124 0
1937 -98 -124 0
-1938 99 0
-1938 -9 0
1938 -99 9 0
-1939 99 0
-1939 -24 0
1939 -99 24 0
-1940 99 0
-1940 -39 0
1940 -99 39 0
-1941 99 0
-1941 -53 0
1941 -99 53 0
-1942 99 0
-1942 -66 0
1942 -99 66 0
-1943 99 0
-1943 -78 0
1943 -99 78 0
-1944 99 0
-1944 -89 0
1944 -99 89 0
-1945 99 0
-1945 -108 0
1945 -99 108 0
-1946 99 0
-1946 125 0
1946 -99 -125 0
-1947 99 0
-1947 126 0
1947 -99 -126 0
-1948 99 0
-1948 127 0
1948 -99 -127 0
-1949 99 0
-1949 128 0
1949 -99 -128 0
-1950 99 0
-1950 129 0
1950 -99 -129 0
-1951 99 0
-1951 130 0
1951 -99 -130 0
-1952 99 0
-1952 131 0
1952 -99 -131 0
-1953 100 0
-1953 -10 0
1953 -100 10 0
-1954 100 0
-1954 -25 0
1954 -100 25 0
-1955 100 0
-1955 -40 0
1955 -100 40 0
-1956 100 0
-1956 -54 0
1956 -100 54 0
-1957 100 0
-1957 -67 0
1957 -100 67 0
-1958 100 0
-1958 -79 0
1958 -100 79 0
-1959 100 0
-1959 -90 0
1959 -100 90 0
-1960 100 0
-1960 -109 0
1960 -100 109 0
-1961 100 0
-1961 -117 0
1961 -100 117 0
-1962 100 0
-1962 132 0
1962 -100 -132 0
-1963 100 0
-1963 133 0
1963 -100 -133 0
-1964 100 0
-1964 134 0
1964 -100 -134 0
-1965 100 0
-1965 135 0
1965 -100 -135 0
-1966 100 0
-1966 136 0
1966 -100 -136 0
-1967 100 0
-1967 137 0
1967 -100 -137 0
-1968 101 0
-1968 -11 0
1968 -101 11 0
-1969 101 0
-1969 -26 0
1969 -101 26 0
-1970 101 0
-1970 -41 0
1970 -101 41 0
-1971 101 0
-1971 -55 0
1971 -101 55 0
-1972 101 0
-1972 -68 0
1972 -101 68 0
-1973 101 0
-1973 -80 0
1973 -101 80 0
-1974 101 0
-1974 -91 0
1974 -101 91 0
-1975 101 0
-1975 -110 0
1975 -101 110 0
-1976 101 0
-1976 -118 0
1976 -101 118 0
-1977 101 0
-1977 -125 0
1977 -101 125 0
-1978 101 0
-1978 138 0
1978 -101 -138 0
-1979 101 0
-1979 139 0
1979 -101 -139 0
-1980 101 0
-1980 140 0
1980 -101 -140 0
-1981 101 0
-1981 141 0
1981 -101 -141 0
-1982 101 0
-1982 142 0
1982 -101 -142 0
-1983 102 0
-1983 -12 0
1983 -102 12 0
-1984 102 0
-1984 -27 0
1984 -102 27 0
-1985 102 0
-1985 -42 0
1985 -102 42 0
-1986 102 0
-1986 -56 0
1986 -102 56 0
-1987 102 0
-1987 -69 0
1987 -102 69 0
-1988 102 0
-1988 -81 0
1988 -102 81 0
-1989 102 0
-1989 -92 0
1989 -102 92 0
-1990 102 0
-1990 -111 0
1990 -102 111 0
-1991 102 0
-1991 -119 0
1991 -102 119 0
-1992 102 0
-1992 -126 0
1992 -102 126 0
-1993 102 0
-1993 -132 0
1993 -102 132 0
-1994 102 0
-1994 143 0
1994 -102 -143 0
-1995 102 0
-1995 144 0
1995 -102 -144 0
-1996 102 0
-1996 145 0
1996 -102 -145 0
-1997 102 0
-1997 146 0
1997 -102 -146 0
-1998 103 0
-1998 -13 0
1998 -103 13 0
-1999 103 0
-1999 -28 0
1999 -103 28 0
-2000 103 0
-2000 -43 0
2000 -103 43 0
-2001 103 0
-2001 -57 0
2001 -103 57 0
-2002 103 0
-2002 -70 0
2002 -103 70 0
-2003 103 0
-2003 -82 0
2003 -103 82 0
-2004 103 0
-2004 -93 0
2004 -103 93 0
-2005 103 0
-2005 -112 0
2005 -103 112 0
-2006 103 0
-2006 -120 0
2006 -103 120 0
-2007 103 0
-2007 -127 0
2007 -103 127 0
-2008 103 0
-2008 -133 0
2008 -103 133 0
-2009 103 0
-2009 -138 0
2009 -103 138 0
-2010 103 0
-2010 147 0
2010 -103 -147 0
-2011 103 0
-2011 148 0
2011 -103 -148 0
-2012 103 0
-2012 149 0
2012 -103 -149 0
-2013 104 0
-2013 -14 0
2013 -104 14 0
-2014 104 0
-2014 -29 0
2014 -104 29 0
-2015 104 0
-2015 -44 0
2015 -104 44 0
-2016 104 0
-2016 -58 0
2016 -104 58 0
-2017 104 0
-2017 -71 0
2017 -104 71 0
-2018 104 0
-2018 -83 0
2018 -104 83 0
-2019 104 0
-2019 -94 0
2019 -104 94 0
-2020 104 0
-2020 -113 0
2020 -104 113 0
-2021 104 0
-2021 -121 0
2021 -104 121 0
-2022 104 0
-2022 -128 0
2022 -104 128 0
-2023 104 0
-2023 -134 0
2023 -104 134 0
-2024 104 0
-2024 -139 0
2024 -104 139 0
-2025 104 0
-2025 -143 0
2025 -104 143 0
-2026 104 0
-2026 150 0
2026 -104 -150 0
-2027 104 0
-2027 151 0
2027 -104 -151 0
-2028 105 0
-2028 -15 0
2028 -105 15 0
-2029 105 0
-2029 -30 0
2029 -105 30 0
-2030 105 0
-2030 -45 0
2030 -105 45 0
-2031 105 0
-2031 -59 0
2031 -105 59 0
-2032 105 0
-2032 -72 0
2032 -105 72 0
-2033 105 0
-2033 -84 0
2033 -105 84 0
-2034 105 0
-2034 -95 0
2034 -105 95 0
-2035 105 0
-2035 -114 0
2035 -105 114 0
-2036 105 0
-2036 -122 0
2036 -105 122 0
-2037 105 0
-2037 -129 0
2037 -105 129 0
-2038 105 0
-2038 -135 0
2038 -105 135 0
-2039 105 0
-2039 -140 0
2039 -105 140 0
-2040 105 0
-2040 -144 0
2040 -105 144 0
-2041 105 0
-2041 -147 0
2041 -105 147 0
-2042 105 0
-2042 152 0
2042 -105 -152 0
-2043 106 0
-2043 -16 0
2043 -106 16 0
-2044 106 0
-2044 -31 0
2044 -106 31 0
-2045 106 0
-2045 -46 0
2045 -106 46 0
-2046 106 0
-2046 -60 0
2046 -106 60 0
-2047 106 0
-2047 -73 0
2047 -106 73 0
-2048 106 0
-2048 -85 0
2048 -106 85 0
-2049 106 0
-2049 -96 0
2049 -106 96 0
-2050 106 0
-2050 -115 0
2050 -106 115 0
-2051 106 0
-2051 -123 0
2051 -106 123 0
-2052 106 0
-2052 -130 0
2052 -106 130 0
-2053 106 0
-2053 -136 0
2053 -106 136 0
-2054 106 0
-2054 -141 0
2054 -106 141 0
-2055 106 0
-2055 -145 0
2055 -106 145 0
-2056 106 0
-2056 -148 0
2056 -106 148 0
-2057 106 0
-2057 -150 0
2057 -106 150 0
-2058 107 0
-2058 -32 0
2058 -107 32 0
-2059 107 0
-2059 -47 0
2059 -107 47 0
-2060 107 0
-2060 -61 0
2060 -107 61 0
-2061 107 0
-2061 -74 0
2061 -107 74 0
-2062 107 0
-2062 -86 0
2062 -107 86 0
-2063 107 0
-2063 -97 0
2063 -107 97 0
-2064 107 0
-2064 -116 0
2064 -107 116 0
-2065 107 0
-2065 -124 0
2065 -107 124 0
-2066 107 0
-2066 -131 0
2066 -107 131 0
-2067 107 0
-2067 -137 0
2067 -107 137 0
-2068 107 0
-2068 -142 0
2068 -107 142 0
-2069 107 0
-2069 -146 0
2069 -107 146 0
-2070 107 0
-2070 -149 0
2070 -107 149 0
-2071 107 0
-2071 -151 0
2071 -107 151 0
-2072 107 0
-2072 -152 0
2072 -107 152 0
-2073 -7 0
-2073 1 0
2073 7 -1 0
-2074 -7 0
-2074 2 0
2074 7 -2 0
-2075 -7 0
-2075 3 0
2075 7 -3 0
-2076 -7 0
-2076 4 0
2076 7 -4 0
-2077 -7 0
-2077 5 0
2077 7 -5 0
-2078 -7 0
-2078 6 0
2078 7 -6 0
-2079 -7 0
-2079 8 0
2079 7 -8 0
-2080 -7 0
-2080 9 0
2080 7 -9 0
-2081 -7 0
-2081 10 0
2081 7 -10 0
-2082 -7 0
-2082 11 0
2082 7 -11 0
-2083 -7 0
-2083 12 0
2083 7 -12 0
-2084 -7 0
-2084 13 0
2084 7 -13 0
-2085 -7 0
-2085 14 0
2085 7 -14 0
-2086 -7 0
-2086 15 0
2086 7 -15 0
-2087 -7 0
-2087 16 0
2087 7 -16 0
-2088 -22 0
-2088 17 0
2088 22 -17 0
-2089 -22 0
-2089 18 0
2089 22 -18 0
-2090 -22 0
-2090 19 0
2090 22 -19 0
-2091 -22 0
-2091 20 0
2091 22 -20 0
-2092 -22 0
-2092 21 0
2092 22 -21 0
-2093 -22 0
-2093 23 0
2093 22 -23 0
-2094 -22 0
-2094 24 0
2094 22 -24 0
-2095 -22 0
-2095 25 0
2095 22 -25 0
-2096 -22 0
-2096 26 0
2096 22 -26 0
-2097 -22 0
-2097 27 0
2097 22 -27 0
-2098 -22 0
-2098 28 0
2098 22 -28 0
-2099 -22 0
-2099 29 0
2099 22 -29 0
-2100 -22 0
-2100 30 0
2100 22 -30 0
-2101 -22 0
-2101 31 0
2101 22 -31 0
-2102 -22 0
-2102 32 0
2102 22 -32 0
-2103 -37 0
-2103 -1 0
2103 37 1 0
-2104 -37 0
-2104 33 0
2104 37 -33 0
-2105 -37 0
-2105 34 0
2105 37 -34 0
-2106 -37 0
-2106 35 0
2106 37 -35 0
-2107 -37 0
-2107 36 0
2107 37 -36 0
-2108 -37 0
-2108 38 0
2108 37 -38 0
-2109 -37 0
-2109 39 0
2109 37 -39 0
-2110 -37 0
-2110 40 0
2110 37 -40 0
-2111 -37 0
-2111 41 0
2111 37 -41 0
-2112 -37 0
-2112 42 0
2112 37 -42 0
-2113 -37 0
-2113 43 0
2113 37 -43 0
-2114 -37 0
-2114 44 0
2114 37 -44 0
-2115 -37 0
-2115 45 0
2115 37 -45 0
-2116 -37 0
-2116 46 0
2116 37 -46 0
-2117 -37 0
-2117 47 0
2117 37 -47 0
-2118 -51 0
-2118 -2 0
2118 51 2 0
-2119 -51 0
-2119 -17 0
2119 51 17 0
-2120 -51 0
-2120 48 0
2120 51 -48 0
-2121 -51 0
-2121 49 0
2121 51 -49 0
-2122 -51 0
-2122 50 0
2122 51 -50 0
-2123 -51 0
-2123 52 0
2123 51 -52 0
-2124 -51 0
-2124 53 0
2124 51 -53 0
-2125 -51 0
-2125 54 0
2125 51 -54 0
-2126 -51 0
-2126 55 0
2126 51 -55 0
-2127 -51 0
-2127 56 0
2127 51 -56 0
-2128 -51 0
-2128 57 0
2128 51 -57 0
-2129 -51 0
-2129 58 0
2129 51 -58 0
-2130 -51 0
-2130 59 0
2130 51 -59 0
-2131 -51 0
-2131 60 0
2131 51 -60 0
-2132 -51 0
-2132 61 0
2132 51 -61 0
-2133 -64 0
-2133 -3 0
2133 64 3 0
-2134 -64 0
-2134 -18 0
2134 64 18 0
-2135 -64 0
-2135 -33 0
2135 64 33 0
-2136 -64 0
-2136 62 0
2136 64 -62 0
-2137 -64 0
-2137 63 0
2137 64 -63 0
-2138 -64 0
-2138 65 0
2138 64 -65 0
-2139 -64 0
-2139 66 0
2139 64 -66 0
-2140 -64 0
-2140 67 0
2140 64 -67 0
-2141 -64 0
-2141 68 0
2141 64 -68 0
-2142 -64 0
-2142 69 0
2142 64 -69 0
-2143 -64 0
-2143 70 0
2143 64 -70 0
-2144 -64 0
-2144 71 0
2144 64 -71 0
-2145 -64 0
-2145 72 0
2145 64 -72 0
-2146 -64 0
-2146 73 0
2146 64 -73 0
-2147 -64 0
-2147 74 0
2147 64 -74 0
-2148 -76 0
-2148 -4 0
2148 76 4 0
-2149 -76 0
-2149 -19 0
2149 76 19 0
-2150 -76 0
-2150 -34 0
2150 76 34 0
-2151 -76 0
-2151 -48 0
2151 76 48 0
-2152 -76 0
-2152 75 0
2152 76 -75 0
-2153 -76 0
-2153 77 0
2153 76 -77 0
-2154 -76 0
-2154 78 0
2154 76 -78 0
-2155 -76 0
-2155 79 0
2155 76 -79 0
-2156 -76 0
-2156 80 0
2156 76 -80 0
-2157 -76 0
-2157 81 0
2157 76 -81 0
-2158 -76 0
-2158 82 0
2158 76 -82 0
-2159 -76 0
-2159 83 0
2159 76 -83 0
-2160 -76 0
-2160 84 0
2160 76 -84 0
-2161 -76 0
-2161 85 0
2161 76 -85 0
-2162 -76 0
-2162 86 0
2162 76 -86 0
-2163 -87 0
-2163 -5 0
2163 87 5 0
-2164 -87 0
-2164 -20 0
2164 87 20 0
-2165 -87 0
-2165 -35 0
2165 87 35 0
-2166 -87 0
-2166 -49 0
2166 87 49 0
-2167 -87 0
-2167 -62 0
2167 87 62 0
-2168 -87 0
-2168 88 0
2168 87 -88 0
-2169 -87 0
-2169 89 0
2169 87 -89 0
-2170 -87 0
-2170 90 0
2170 87 -90 0
-2171 -87 0
-2171 91 0
2171 87 -91 0
-2172 -87 0
-2172 92 0
2172 87 -92 0
-2173 -87 0
-2173 93 0
2173 87 -93 0
-2174 -87 0
-2174 94 0
2174 87 -94 0
-2175 -87 0
-2175 95 0
2175 87 -95 0
-2176 -87 0
-2176 96 0
2176 87 -96 0
-2177 -87 0
-2177 97 0
2177 87 -97 0
-2178 108 0
-2178 -9 0
2178 -108 9 0
-2179 108 0
-2179 -24 0
2179 -108 24 0
-2180 108 0
-2180 -39 0
2180 -108 39 0
-2181 108 0
-2181 -53 0
2181 -108 53 0
-2182 108 0
-2182 -66 0
2182 -108 66 0
-2183 108 0
-2183 -78 0
2183 -108 78 0
-2184 108 0
-2184 -89 0
2184 -108 89 0
-2185 108 0
-2185 -99 0
2185 -108 99 0
-2186 108 0
-2186 125 0
2186 -108 -125 0
-2187 108 0
-2187 126 0
2187 -108 -126 0
-2188 108 0
-2188 127 0
2188 -108 -127 0
-2189 108 0
-2189 128 0
2189 -108 -128 0
-2190 108 0
-2190 129 0
2190 -108 -129 0
-2191 108 0
-2191 130 0
2191 -108 -130 0
-2192 108 0
-2192 131 0
2192 -108 -131 0
-2193 109 0
-2193 -10 0
2193 -109 10 0
-2194 109 0
-2194 -25 0
2194 -109 25 0
-2195 109 0
-2195 -40 0
2195 -109 40 0
-2196 109 0
-2196 -54 0
2196 -109 54 0
-2197 109 0
-2197 -67 0
2197 -109 67 0
-2198 109 0
-2198 -79 0
2198 -109 79 0
-2199 109 0
-2199 -90 0
2199 -109 90 0
-2200 109 0
-2200 -100 0
2200 -109 100 0
-2201 109 0
-2201 -117 0
2201 -109 117 0
-2202 109 0
-2202 132 0
2202 -109 -132 0
-2203 109 0
-2203 133 0
2203 -109 -133 0
-2204 109 0
-2204 134 0
2204 -109 -134 0
-2205 109 0
-2205 135 0
2205 -109 -135 0
-2206 109 0
-2206 136 0
2206 -109 -136 0
-2207 109 0
-2207 137 0
2207 -109 -137 0
-2208 110 0
-2208 -11 0
2208 -110 11 0
-2209 110 0
-2209 -26 0
2209 -110 26 0
-2210 110 0
-2210 -41 0
2210 -110 41 0
-2211 110 0
-2211 -55 0
2211 -110 55 0
-2212 110 0
-2212 -68 0
2212 -110 68 0
-2213 110 0
-2213 -80 0
2213 -110 80 0
-2214 110 0
-2214 -91 0
2214 -110 91 0
-2215 110 0
-2215 -101 0
2215 -110 101 0
-2216 110 0
-2216 -118 0
2216 -110 118 0
-2217 110 0
-2217 -125 0
2217 -110 125 0
-2218 110 0
-2218 138 0
2218 -110 -138 0
-2219 110 0
-2219 139 0
2219 -110 -139 0
-2220 110 0
-2220 140 0
2220 -110 -140 0
-2221 110 0
-2221 141 0
2221 -110 -141 0
-2222 110 0
-2222 142 0
2222 -110 -142 0
-2223 111 0
-2223 -12 0
2223 -111 12 0
-2224 111 0
-2224 -27 0
2224 -111 27 0
-2225 111 0
-2225 -42 0
2225 -111 42 0
-2226 111 0
-2226 -56 0
2226 -111 56 0
-2227 111 0
-2227 -69 0
2227 -111 69 0
-2228 111 0
-2228 -81 0
2228 -111 81 0
-2229 111 0
-2229 -92 0
2229 -111 92 0
-2230 111 0
-2230 -102 0
2230 -111 102 0
-2231 111 0
-2231 -119 0
2231 -111 119 0
-2232 111 0
-2232 -126 0
2232 -111 126 0
-2233 111 0
-2233 -132 0
2233 -111 132 0
-2234 111 0
-2234 143 0
2234 -111 -143 0
-2235 111 0
-2235 144 0
2235 -111 -144 0
-2236 111 0
-2236 145 0
2236 -111 -145 0
-2237 111 0
-2237 146 0
2237 -111 -146 0
-2238 112 0
-2238 -13 0
2238 -112 13 0
-2239 112 0
-2239 -28 0
2239 -112 28 0
-2240 112 0
-2240 -43 0
2240 -112 43 0
-2241 112 0
-2241 -57 0
2241 -112 57 0
-2242 112 0
-2242 -70 0
2242 -112 70 0
-2243 112 0
-2243 -82 0
2243 -112 82 0
-2244 112 0
-2244 -93 0
2244 -112 93 0
-2245 112 0
-2245 -103 0
2245 -112 103 0
-2246 112 0
-2246 -120 0
2246 -112 120 0
-2247 112 0
-2247 -127 0
2247 -112 127 0
-2248 112 0
-2248 -133 0
2248 -112 133 0
-2249 112 0
-2249 -138 0
2249 -112 138 0
-2250 112 0
-2250 147 0
2250 -112 -147 0
-2251 112 0
-2251 148 0
2251 -112 -148 0
-2252 112 0
-2252 149 0
2252 -112 -149 0
-2253 113 0
-2253 -14 0
2253 -113 14 0
-2254 113 0
-2254 -29 0
2254 -113 29 0
-2255 113 0
-2255 -44 0
2255 -113 44 0
-2256 113 0
-2256 -58 0
2256 -113 58 0
-2257 113 0
-2257 -71 0
2257 -113 71 0
-2258 113 0
-2258 -83 0
2258 -113 83 0
-2259 113 0
-2259 -94 0
2259 -113 94 0
-2260 113 0
-2260 -104 0
2260 -113 104 0
-2261 113 0
-2261 -121 0
2261 -113 121 0
-2262 113 0
-2262 -128 0
2262 -113 128 0
-2263 113 0
-2263 -134 0
2263 -113 134 0
-2264 113 0
-2264 -139 0
2264 -113 139 0
-2265 113 0
-2265 -143 0
2265 -113 143 0
-2266 113 0
-2266 150 0
2266 -113 -150 0
-2267 113 0
-2267 151 0
2267 -113 -151 0
-2268 114 0
-2268 -15 0
2268 -114 15 0
-2269 114 0
-2269 -30 0
2269 -114 30 0
-2270 114 0
-2270 -45 0
2270 -114 45 0
-2271 114 0
-2271 -59 0
2271 -114 59 0
-2272 114 0
-2272 -72 0
2272 -114 72 0
-2273 114 0
-2273 -84 0
2273 -114 84 0
-2274 114 0
-2274 -95 0
2274 -114 95 0
-2275 114 0
-2275 -105 0
2275 -114 105 0
-2276 114 0
-2276 -122 0
2276 -114 122 0
-2277 114 0
-2277 -129 0
2277 -114 129 0
-2278 114 0
-2278 -135 0
2278 -114 135 0
-2279 114 0
-2279 -140 0
2279 -114 140 0
-2280 114 0
-2280 -144 0
2280 -114 144 0
-2281 114 0
-2281 -147 0
2281 -114 147 0
-2282 114 0
-2282 152 0
2282 -114 -152 0
-2283 115 0
-2283 -16 0
2283 -115 16 0
-2284 115 0
-2284 -31 0
2284 -115 31 0
-2285 115 0
-2285 -46 0
2285 -115 46 0
-2286 115 0
-2286 -60 0
2286 -115 60 0
-2287 115 0
-2287 -73 0
2287 -115 73 0
-2288 115 0
-2288 -85 0
2288 -115 85 0
-2289 115 0
-2289 -96 0
2289 -115 96 0
-2290 115 0
-2290 -106 0
2290 -115 106 0
-2291 115 0
-2291 -123 0
2291 -115 123 0
-2292 115 0
-2292 -130 0
2292 -115 130 0
-2293 115 0
-2293 -136 0
2293 -115 136 0
-2294 115 0
-2294 -141 0
2294 -115 141 0
-2295 115 0
-2295 -145 0
2295 -115 145 0
-2296 115 0
-2296 -148 0
2296 -115 148 0
-2297 115 0
-2297 -150 0
2297 -115 150 0
-2298 116 0
-2298 -32 0
2298 -116 32 0
-2299 116 0
-2299 -47 0
2299 -116 47 0
-2300 116 0
-2300 -61 0
2300 -116 61 0
-2301 116 0
-2301 -74 0
2301 -116 74 0
-2302 116 0
-2302 -86 0
2302 -116 86 0
-2303 116 0
-2303 -97 0
2303 -116 97 0
-2304 116 0
-2304 -107 0
2304 -116 107 0
-2305 116 0
-2305 -124 0
2305 -116 124 0
-2306 116 0
-2306 -131 0
2306 -116 131 0
-2307 116 0
-2307 -137 0
2307 -116 137 0
-2308 116 0
-2308 -142 0
2308 -116 142 0
-2309 116 0
-2309 -146 0
2309 -116 146 0
-2310 116 0
-2310 -149 0
2310 -116 149 0
-2311 116 0
-2311 -151 0
2311 -116 151 0
-2312 116 0
-2312 -152 0
2312 -116 152 0
-2313 -8 0
-2313 1 0
2313 8 -1 0
-2314 -8 0
-2314 2 0
2314 8 -2 0
-2315 -8 0
-2315 3 0
2315 8 -3 0
-2316 -8 0
-2316 4 0
2316 8 -4 0
-2317 -8 0
-2317 5 0
2317 8 -5 0
-2318 -8 0
-2318 6 0
2318 8 -6 0
-2319 -8 0
-2319 7 0
2319 8 -7 0
-2320 -8 0
-2320 9 0
2320 8 -9 0
-2321 -8 0
-2321 10 0
2321 8 -10 0
-2322 -8 0
-2322 11 0
2322 8 -11 0
-2323 -8 0
-2323 12 0
2323 8 -12 0
-2324 -8 0
-2324 13 0
2324 8 -13 0
-2325 -8 0
-2325 14 0
2325 8 -14 0
-2326 -8 0
-2326 15 0
2326 8 -15 0
-2327 -8 0
-2327 16 0
2327 8 -16 0
-2328 -23 0
-2328 17 0
2328 23 -17 0
-2329 -23 0
-2329 18 0
2329 23 -18 0
-2330 -23 0
-2330 19 0
2330 23 -19 0
-2331 -23 0
-2331 20 0
2331 23 -20 0
-2332 -23 0
-2332 21 0
2332 23 -21 0
-2333 -23 0
-2333 22 0
2333 23 -22 0
-2334 -23 0
-2334 24 0
2334 23 -24 0
-2335 -23 0
-2335 25 0
2335 23 -25 0
-2336 -23 0
-2336 26 0
2336 23 -26 0
-2337 -23 0
-2337 27 0
2337 23 -27 0
-2338 -23 0
-2338 28 0
2338 23 -28 0
-2339 -23 0
-2339 29 0
2339 23 -29 0
-2340 -23 0
-2340 30 0
2340 23 -30 0
-2341 -23 0
-2341 31 0
2341 23 -31 0
-2342 -23 0
-2342 32 0
2342 23 -32 0
-2343 -38 0
-2343 -1 0
2343 38 1 0
-2344 -38 0
-2344 33 0
2344 38 -33 0
-2345 -38 0
-2345 34 0
2345 38 -34 0
-2346 -38 0
-2346 35 0
2346 38 -35 0
-2347 -38 0
-2347 36 0
2347 38 -36 0
-2348 -38 0
-2348 37 0
2348 38 -37 0
-2349 -38 0
-2349 39 0
2349 38 -39 0
-2350 -38 0
-2350 40 0
2350 38 -40 0
-2351 -38 0
-2351 41 0
2351 38 -41 0
-2352 -38 0
-2352 42 0
2352 38 -42 0
-2353 -38 0
-2353 43 0
2353 38 -43 0
-2354 -38 0
-2354 44 0
2354 38 -44 0
-2355 -38 0
-2355 45 0
2355 38 -45 0
-2356 -38 0
-2356 46 0
2356 38 -46 0
-2357 -38 0
-2357 47 0
2357 38 -47 0
-2358 -52 0
-2358 -2 0
2358 52 2 0
-2359 -52 0
-2359 -17 0
2359 52 17 0
-2360 -52 0
-2360 48 0
2360 52 -48 0
-2361 -52 0
-2361 49 0
2361 52 -49 0
-2362 -52 0
-2362 50 0
2362 52 -50 0
-2363 -52 0
-2363 51 0
2363 52 -51 0
-2364 -52 0
-2364 53 0
2364 52 -53 0
-2365 -52 0
-2365 54 0
2365 52 -54 0
-2366 -52 0
-2366 55 0
2366 52 -55 0
-2367 -52 0
-2367 56 0
2367 52 -56 0
-2368 -52 0
-2368 57 0
2368 52 -57 0
-2369 -52 0
-2369 58 0
2369 52 -58 0
-2370 -52 0
-2370 59 0
2370 52 -59 0
-2371 -52 0
-2371 60 0
2371 52 -60 0
-2372 -52 0
-2372 61 0
2372 52 -61 0
-2373 -65 0
-2373 -3 0
2373 65 3 0
-2374 -65 0
-2374 -18 0
2374 65 18 0
-2375 -65 0
-2375 -33 0
2375 65 33 0
-2376 -65 0
-2376 62 0
2376 65 -62 0
-2377 -65 0
-2377 63 0
2377 65 -63 0
-2378 -65 0
-2378 64 0
2378 65 -64 0
-2379 -65 0
-2379 66 0
2379 65 -66 0
-2380 -65 0
-2380 67 0
2380 65 -67 0
-2381 -65 0
-2381 68 0
2381 65 -68 0
-2382 -65 0
-2382 69 0
2382 65 -69 0
-2383 -65 0
-2383 70 0
2383 65 -70 0
-2384 -65 0
-2384 71 0
2384 65 -71 0
-2385 -65 0
-2385 72 0
2385 65 -72 0
-2386 -65 0
-2386 73 0
2386 65 -73 0
-2387 -65 0
-2387 74 0
2387 65 -74 0
-2388 -77 0
-2388 -4 0
2388 77 4 0
-2389 -77 0
-2389 -19 0
2389 77 19 0
-2390 -77 0
-2390 -34 0
2390 77 34 0
-2391 -77 0
-2391 -48 0
2391 77 48 0
-2392 -77 0
-2392 75 0
2392 77 -75 0
-2393 -77 0
-2393 76 0
2393 77 -76 0
-2394 -77 0
-2394 78 0
2394 77 -78 0
-2395 -77 0
-2395 79 0
2395 77 -79 0
-2396 -77 0
-2396 80 0
2396 77 -80 0
-2397 -77 0
-2397 81 0
2397 77 -81 0
-2398 -77 0
-2398 82 0
2398 77 -82 0
-2399 -77 0
-2399 83 0
2399 77 -83 0
-2400 -77 0
-2400 84 0
2400 77 -84 0
-2401 -77 0
-2401 85 0
2401 77 -85 0
-2402 -77 0
-2402 86 0
2402 77 -86 0
-2403 -88 0
-2403 -5 0
2403 88 5 0
-2404 -88 0
-2404 -20 0
2404 88 20 0
-2405 -88 0
-2405 -35 0
2405 88 35 0
-2406 -88 0
-2406 -49 0
2406 88 49 0
-2407 -88 0
-2407 -62 0
2407 88 62 0
-2408 -88 0
-2408 87 0
2408 88 -87 0
-2409 -88 0
-2409 89 0
2409 88 -89 0
-2410 -88 0
-2410 90 0
2410 88 -90 0
-2411 -88 0
-2411 91 0
2411 88 -91 0
-2412 -88 0
-2412 92 0
2412 88 -92 0
-2413 -88 0
-2413 93 0
2413 88 -93 0
-2414 -88 0
-2414 94 0
2414 88 -94 0
-2415 -88 0
-2415 95 0
2415 88 -95 0
-2416 -88 0
-2416 96 0
2416 88 -96 0
-2417 -88 0
-2417 97 0
2417 88 -97 0
-2418 -98 0
-2418 -6 0
2418 98 6 0
-2419 -98 0
-2419 -21 0
2419 98 21 0
-2420 -98 0
-2420 -36 0
2420 98 36 0
-2421 -98 0
-2421 -50 0
2421 98 50 0
-2422 -98 0
-2422 -63 0
2422 98 63 0
-2423 -98 0
-2423 -75 0
2423 98 75 0
-2424 -98 0
-2424 99 0
2424 98 -99 0
-2425 -98 0
-2425 100 0
2425 98 -100 0
-2426 -98 0
-2426 101 0
2426 98 -101 0
-2427 -98 0
-2427 102 0
2427 98 -102 0
-2428 -98 0
-2428 103 0
2428 98 -103 0
-2429 -98 0
-2429 104 0
2429 98 -104 0
-2430 -98 0
-2430 105 0
2430 98 -105 0
-2431 -98 0
-2431 106 0
2431 98 -106 0
-2432 -98 0
-2432 107 0
2432 98 -107 0
-2433 117 0
-2433 -10 0
2433 -117 10 0
-2434 117 0
-2434 -25 0
2434 -117 25 0
-2435 117 0
-2435 -40 0
2435 -117 40 0
-2436 117 0
-2436 -54 0
2436 -117 54 0
-2437 117 0
-2437 -67 0
2437 -117 67 0
-2438 117 0
-2438 -79 0
2438 -117 79 0
-2439 117 0
-2439 -90 0
2439 -117 90 0
-2440 117 0
-2440 -100 0
2440 -117 100 0
-2441 117 0
-2441 -109 0
2441 -117 109 0
-2442 117 0
-2442 132 0
2442 -117 -132 0
-2443 117 0
-2443 133 0
2443 -117 -133 0
-2444 117 0
-2444 134 0
2444 -117 -134 0
-2445 117 0
-2445 135 0
2445 -117 -135 0
-2446 117 0
-2446 136 0
2446 -117 -136 0
-2447 117 0
-2447 137 0
2447 -117 -137 0
-2448 118 0
-2448 -11 0
2448 -118 11 0
-2449 118 0
-2449 -26 0
2449 -118 26 0
-2450 118 0
-2450 -41 0
2450 -118 41 0
-2451 118 0
-2451 -55 0
2451 -118 55 0
-2452 118 0
-2452 -68 0
2452 -118 68 0
-2453 118 0
-2453 -80 0
2453 -118 80 0
-2454 118 0
-2454 -91 0
2454 -118 91 0
-2455 118 0
-2455 -101 0
2455 -118 101 0
-2456 118 0
-2456 -110 0
2456 -118 110 0
-2457 118 0
-2457 -125 0
2457 -118 125 0
-2458 118 0
-2458 138 0
2458 -118 -138 0
-2459 118 0
-2459 139 0
2459 -118 -139 0
-2460 118 0
-2460 140 0
2460 -118 -140 0
-2461 118 0
-2461 141 0
2461 -118 -141 0
-2462 118 0
-2462 142 0
2462 -118 -142 0
-2463 119 0
-2463 -12 0
2463 -119 12 0
-2464 119 0
-2464 -27 0
2464 -119 27 0
-2465 119 0
-2465 -42 0
2465 -119 42 0
-2466 119 0
-2466 -56 0
2466 -119 56 0
-2467 119 0
-2467 -69 0
2467 -119 69 0
-2468 119 0
-2468 -81 0
2468 -119 81 0
-2469 119 0
-2469 -92 0
2469 -119 92 0
-2470 119 0
-2470 -102 0
2470 -119 102 0
-2471 119 0
-2471 -111 0
2471 -119 111 0
-2472 119 0
-2472 -126 0
2472 -119 126 0
-2473 119 0
-2473 -132 0
2473 -119 132 0
-2474 119 0
-2474 143 0
2474 -119 -143 0
-2475 119 0
-2475 144 0
2475 -119 -144 0
-2476 119 0
-2476 145 0
2476 -119 -145 0
-2477 119 0
-2477 146 0
2477 -119 -146 0
-2478 120 0
-2478 -13 0
2478 -120 13 0
-2479 120 0
-2479 -28 0
2479 -120 28 0
-2480 120 0
-2480 -43 0
2480 -120 43 0
-2481 120 0
-2481 -57 0
2481 -120 57 0
-2482 120 0
-2482 -70 0
2482 -120 70 0
-2483 120 0
-2483 -82 0
2483 -120 82 0
-2484 120 0
-2484 -93 0
2484 -120 93 0
-2485 120 0
-2485 -103 0
2485 -120 103 0
-2486 120 0
-2486 -112 0
2486 -120 112 0
-2487 120 0
-2487 -127 0
2487 -120 127 0
-2488 120 0
-2488 -133 0
2488 -120 133 0
-2489 120 0
-2489 -138 0
2489 -120 138 0
-2490 120 0
-2490 147 0
2490 -120 -147 0
-2491 120 0
-2491 148 0
2491 -120 -148 0
-2492 120 0
-2492 149 0
2492 -120 -149 0
-2493 121 0
-2493 -14 0
2493 -121 14 0
-2494 121 0
-2494 -29 0
2494 -121 29 0
-2495 121 0
-2495 -44 0
2495 -121 44 0
-2496 121 0
-2496 -58 0
2496 -121 58 0
-2497 121 0
-2497 -71 0
2497 -121 71 0
-2498 121 0
-2498 -83 0
2498 -121 83 0
-2499 121 0
-2499 -94 0
2499 -121 94 0
-2500 121 0
-2500 -104 0
2500 -121 104 0
-2501 121 0
-2501 -113 0
2501 -121 113 0
-2502 121 0
-2502 -128 0
2502 -121 128 0
-2503 121 0
-2503 -134 0
2503 -121 134 0
-2504 121 0
-2504 -139 0
2504 -121 139 0
-2505 121 0
-2505 -143 0
2505 -121 143 0
-2506 121 0
-2506 150 0
2506 -121 -150 0
-2507 121 0
-2507 151 0
2507 -121 -151 0
-2508 122 0
-2508 -15 0
2508 -122 15 0
-2509 122 0
-2509 -30 0
2509 -122 30 0
-2510 122 0
-2510 -45 0
2510 -122 45 0
-2511 122 0
-2511 -59 0
2511 -122 59 0
-2512 122 0
-2512 -72 0
2512 -122 72 0
-2513 122 0
-2513 -84 0
2513 -122 84 0
-2514 122 0
-2514 -95 0
2514 -122 95 0
-2515 122 0
-2515 -105 0
2515 -122 105 0
-2516 122 0
-2516 -114 0
2516 -122 114 0
-2517 122 0
-2517 -129 0
2517 -122 129 0
-2518 122 0
-2518 -135 0
2518 -122 135 0
-2519 122 0
-2519 -140 0
2519 -122 140 0
-2520 122 0
-2520 -144 0
2520 -122 144 0
-2521 122 0
-2521 -147 0
2521 -122 147 0
-2522 122 0
-2522 152 0
2522 -122 -152 0
-2523 123 0
-2523 -16 0
2523 -123 16 0
-2524 123 0
-2524 -31 0
2524 -123 31 0
-2525 123 0
-2525 -46 0
2525 -123 46 0
-2526 123 0
-2526 -60 0
2526 -123 60 0
-2527 123 0
-2527 -73 0
2527 -123 73 0
-2528 123 0
-2528 -85 0
2528 -123 85 0
-2529 123 0
-2529 -96 0
2529 -123 96 0
-2530 123 0
-2530 -106 0
2530 -123 106 0
-2531 123 0
-2531 -115 0
2531 -123 115 0
-2532 123 0
-2532 -130 0
2532 -123 130 0
-2533 123 0
-2533 -136 0
2533 -123 136 0
-2534 123 0
-2534 -141 0
2534 -123 141 0
-2535 123 0
-2535 -145 0
2535 -123 145 0
-2536 123 0
-2536 -148 0
2536 -123 148 0
-2537 123 0
-2537 -150 0
2537 -123 150 0
-2538 124 0
-2538 -32 0
2538 -124 32 0
-2539 124 0
-2539 -47 0
2539 -124 47 0
-2540 124 0
-2540 -61 0
2540 -124 61 0
-2541 124 0
-2541 -74 0
2541 -124 74 0
-2542 124 0
-2542 -86 0
2542 -124 86 0
-2543 124 0
-2543 -97 0
2543 -124 97 0
-2544 124 0
-2544 -107 0
2544 -124 107 0
-2545 124 0
-2545 -116 0
2545 -124 116 0
-2546 124 0
-2546 -131 0
2546 -124 131 0
-2547 124 0
-2547 -137 0
2547 -124 137 0
-2548 124 0
-2548 -142 0
2548 -124 142 0
-2549 124 0
-2549 -146 0
2549 -124 146 0
-2550 124 0
-2550 -149 0
2550 -124 149 0
-2551 124 0
-2551 -151 0
2551 -124 151 0
-2552 124 0
-2552 -152 0
2552 -124 152 0
-2553 -9 0
-2553 1 0
2553 9 -1 0
-2554 -9 0
-2554 2 0
2554 9 -2 0
-2555 -9 0
-2555 3 0
2555 9 -3 0
-2556 -9 0
-2556 4 0
2556 9 -4 0
-2557 -9 0
-2557 5 0
2557 9 -5 0
-2558 -9 0
-2558 6 0
2558 9 -6 0
-2559 -9 0
-2559 7 0
2559 9 -7 0
-2560 -9 0
-2560 8 0
2560 9 -8 0
-2561 -9 0
-2561 10 0
2561 9 -10 0
-2562 -9 0
-2562 11 0
2562 9 -11 0
-2563 -9 0
-2563 12 0
2563 9 -12 0
-2564 -9 0
-2564 13 0
2564 9 -13 0
-2565 -9 0
-2565 14 0
2565 9 -14 0
-2566 -9 0
-2566 15 0
2566 9 -15 0
-2567 -9 0
-2567 16 0
2567 9 -16 0
-2568 -24 0
-2568 17 0
2568 24 -17 0
-2569 -24 0
-2569 18 0
2569 24 -18 0
-2570 -24 0
-2570 19 0
2570 24 -19 0
-2571 -24 0
-2571 20 0
2571 24 -20 0
-2572 -24 0
-2572 21 0
2572 24 -21 0
-2573 -24 0
-2573 22 0
2573 24 -22 0
-2574 -24 0
-2574 23 0
2574 24 -23 0
-2575 -24 0
-2575 25 0
2575 24 -25 0
-2576 -24 0
-2576 26 0
2576 24 -26 0
-2577 -24 0
-2577 27 0
2577 24 -27 0
-2578 -24 0
-2578 28 0
2578 24 -28 0
-2579 -24 0
-2579 29 0
2579 24 -29 0
-2580 -24 0
-2580 30 0
2580 24 -30 0
-2581 -24 0
-2581 31 0
2581 24 -31 0
-2582 -24 0
-2582 32 0
2582 24 -32 0
-2583 -39 0
-2583 -1 0
2583 39 1 0
-2584 -39 0
-2584 33 0
2584 39 -33 0
-2585 -39 0
-2585 34 0
2585 39 -34 0
-2586 -39 0
-2586 35 0
2586 39 -35 0
-2587 -39 0
-2587 36 0
2587 39 -36 0
-2588 -39 0
-2588 37 0
2588 39 -37 0
-2589 -39 0
-2589 38 0
2589 39 -38 0
-2590 -39 0
-2590 40 0
2590 39 -40 0
-2591 -39 0
-2591 41 0
2591 39 -41 0
-2592 -39 0
-2592 42 0
2592 39 -42 0
-2593 -39 0
-2593 43 0
2593 39 -43 0
-2594 -39 0
-2594 44 0
2594 39 -44 0
-2595 -39 0
-2595 45 0
2595 39 -45 0
-2596 -39 0
-2596 46 0
2596 39 -46 0
-2597 -39 0
-2597 47 0
2597 39 -47 0
-2598 -53 0
-2598 -2 0
2598 53 2 0
-2599 -53 0
-2599 -17 0
2599 53 17 0
-2600 -53 0
-2600 48 0
2600 53 -48 0
-2601 -53 0
-2601 49 0
2601 53 -49 0
-2602 -53 0
-2602 50 0
2602 53 -50 0
-2603 -53 0
-2603 51 0
2603 53 -51 0
-2604 -53 0
-2604 52 0
2604 53 -52 0
-2605 -53 0
-2605 54 0
2605 53 -54 0
-2606 -53 0
-2606 55 0
2606 53 -55 0
-2607 -53 0
-2607 56 0
2607 53 -56 0
-2608 -53 0
-2608 57 0
2608 53 -57 0
-2609 -53 0
-2609 58 0
2609 53 -58 0
-2610 -53 0
-2610 59 0
2610 53 -59 0
-2611 -53 0
-2611 60 0
2611 53 -60 0
-2612 -53 0
-2612 61 0
2612 53 -61 0
-2613 -66 0
-2613 -3 0
2613 66 3 0
-2614 -66 0
-2614 -18 0
2614 66 18 0
-2615 -66 0
-2615 -33 0
2615 66 33 0
-2616 -66 0
-2616 62 0
2616 66 -62 0
-2617 -66 0
-2617 63 0
2617 66 -63 0
-2618 -66 0
-2618 64 0
2618 66 -64 0
-2619 -66 0
-2619 65 0
2619 66 -65 0
-2620 -66 0
-2620 67 0
2620 66 -67 0
-2621 -66 0
-2621 68 0
2621 66 -68 0
-2622 -66 0
-2622 69 0
2622 66 -69 0
-2623 -66 0
-2623 70 0
2623 66 -70 0
-2624 -66 0
-2624 71 0
2624 66 -71 0
-2625 -66 0
-2625 72 0
2625 66 -72 0
-2626 -66 0
-2626 73 0
2626 66 -73 0
-2627 -66 0
-2627 74 0
2627 66 -74 0
-2628 -78 0
-2628 -4 0
2628 78 4 0
-2629 -78 0
-2629 -19 0
2629 78 19 0
-2630 -78 0
-2630 -34 0
2630 78 34 0
-2631 -78 0
-2631 -48 0
2631 78 48 0
-2632 -78 0
-2632 75 0
2632 78 -75 0
-2633 -78 0
-2633 76 0
2633 78 -76 0
-2634 -78 0
-2634 77 0
2634 78 -77 0
-2635 -78 0
-2635 79 0
2635 78 -79 0
-2636 -78 0
-2636 80 0
2636 78 -80 0
-2637 -78 0
-2637 81 0
2637 78 -81 0
-2638 -78 0
-2638 82 0
2638 78 -82 0
-2639 -78 0
-2639 83 0
2639 78 -83 0
-2640 -78 0
-2640 84 0
2640 78 -84 0
-2641 -78 0
-2641 85 0
2641 78 -85 0
-2642 -78 0
-2642 86 0
2642 78 -86 0
-2643 -89 0
-2643 -5 0
2643 89 5 0
-2644 -89 0
-2644 -20 0
2644 89 20 0
-2645 -89 0
-2645 -35 0
2645 89 35 0
-2646 -89 0
-2646 -49 0
2646 89 49 0
-2647 -89 0
-2647 -62 0
2647 89 62 0
-2648 -89 0
-2648 87 0
2648 89 -87 0
-2649 -89 0
-2649 88 0
2649 89 -88 0
-2650 -89 0
-2650 90 0
2650 89 -90 0
-2651 -89 0
-2651 91 0
2651 89 -91 0
-2652 -89 0
-2652 92 0
2652 89 -92 0
-2653 -89 0
-2653 93 0
2653 89 -93 0
-2654 -89 0
-2654 94 0
2654 89 -94 0
-2655 -89 0
-2655 95 0
2655 89 -95 0
-2656 -89 0
-2656 96 0
2656 89 -96 0
-2657 -89 0
-2657 97 0
2657 89 -97 0
-2658 -99 0
-2658 -6 0
2658 99 6 0
-2659 -99 0
-2659 -21 0
2659 99 21 0
-2660 -99 0
-2660 -36 0
2660 99 36 0
-2661 -99 0
-2661 -50 0
2661 99 50 0
-2662 -99 0
-2662 -63 0
2662 99 63 0
-2663 -99 0
-2663 -75 0
2663 99 75 0
-2664 -99 0
-2664 98 0
2664 99 -98 0
-2665 -99 0
-2665 100 0
2665 99 -100 0
-2666 -99 0
-2666 101 0
2666 99 -101 0
-2667 -99 0
-2667 102 0
2667 99 -102 0
-2668 -99 0
-2668 103 0
2668 99 -103 0
-2669 -99 0
-2669 104 0
2669 99 -104 0
-2670 -99 0
-2670 105 0
2670 99 -105 0
-2671 -99 0
-2671 106 0
2671 99 -106 0
-2672 -99 0
-2672 107 0
2672 99 -107 0
-2673 -108 0
-2673 -7 0
2673 108 7 0
-2674 -108 0
-2674 -22 0
2674 108 22 0
-2675 -108 0
-2675 -37 0
2675 108 37 0
-2676 -108 0
-2676 -51 0
2676 108 51 0
-2677 -108 0
-2677 -64 0
2677 108 64 0
-2678 -108 0
-2678 -76 0
2678 108 76 0
-2679 -108 0
-2679 -87 0
2679 108 87 0
-2680 -108 0
-2680 109 0
2680 108 -109 0
-2681 -108 0
-2681 110 0
2681 108 -110 0
-2682 -108 0
-2682 111 0
2682 108 -111 0
-2683 -108 0
-2683 112 0
2683 108 -112 0
-2684 -108 0
-2684 113 0
2684 108 -113 0
-2685 -108 0
-2685 114 0
2685 108 -114 0
-2686 -108 0
-2686 115 0
2686 108 -115 0
-2687 -108 0
-2687 116 0
2687 108 -116 0
-2688 125 0
-2688 -11 0
2688 -125 11 0
-2689 125 0
-2689 -26 0
2689 -125 26 0
-2690 125 0
-2690 -41 0
2690 -125 41 0
-2691 125 0
-2691 -55 0
2691 -125 55 0
-2692 125 0
-2692 -68 0
2692 -125 68 0
-2693 125 0
-2693 -80 0
2693 -125 80 0
-2694 125 0
-2694 -91 0
2694 -125 91 0
-2695 125 0
-2695 -101 0
2695 -125 101 0
-2696 125 0
-2696 -110 0
2696 -125 110 0
-2697 125 0
-2697 -118 0
2697 -125 118 0
-2698 125 0
-2698 138 0
2698 -125 -138 0
-2699 125 0
-2699 139 0
2699 -125 -139 0
-2700 125 0
-2700 140 0
2700 -125 -140 0
-2701 125 0
-2701 141 0
2701 -125 -141 0
-2702 125 0
-2702 142 0
2702 -125 -142 0
-2703 126 0
-2703 -12 0
2703 -126 12 0
-2704 126 0
-2704 -27 0
2704 -126 27 0
-2705 126 0
-2705 -42 0
2705 -126 42 0
-2706 126 0
-2706 -56 0
2706 -126 56 0
-2707 126 0
-2707 -69 0
2707 -126 69 0
-2708 126 0
-2708 -81 0
2708 -126 81 0
-2709 126 0
-2709 -92 0
2709 -126 92 0
-2710 126 0
-2710 -102 0
2710 -126 102 0
-2711 126 0
-2711 -111 0
2711 -126 111 0
-2712 126 0
-2712 -119 0
2712 -126 119 0
-2713 126 0
-2713 -132 0
2713 -126 132 0
-2714 126 0
-2714 143 0
2714 -126 -143 0
-2715 126 0
-2715 144 0
2715 -126 -144 0
-2716 126 0
-2716 145 0
2716 -126 -145 0
-2717 126 0
-2717 146 0
2717 -126 -146 0
-2718 127 0
-2718 -13 0
2718 -127 13 0
-2719 127 0
-2719 -28 0
2719 -127 28 0
-2720 127 0
-2720 -43 0
2720 -127 43 0
-2721 127 0
-2721 -57 0
2721 -127 57 0
-2722 127 0
-2722 -70 0
2722 -127 70 0
-2723 127 0
-2723 -82 0
2723 -127 82 0
-2724 127 0
-2724 -93 0
2724 -127 93 0
-2725 127 0
-2725 -103 0
2725 -127 103 0
-2726 127 0
-2726 -112 0
2726 -127 112 0
-2727 127 0
-2727 -120 0
2727 -127 120 0
-2728 127 0
-2728 -133 0
2728 -127 133 0
-2729 127 0
-2729 -138 0
2729 -127 138 0
-2730 127 0
-2730 147 0
2730 -127 -147 0
-2731 127 0
-2731 148 0
2731 -127 -148 0
-2732 127 0
-2732 149 0
2732 -127 -149 0
-2733 128 0
-2733 -14 0
2733 -128 14 0
-2734 128 0
-2734 -29 0
2734 -128 29 0
-2735 128 0
-2735 -44 0
2735 -128 44 0
-2736 128 0
-2736 -58 0
2736 -128 58 0
-2737 128 0
-2737 -71 0
2737 -128 71 0
-2738 128 0
-2738 -83 0
2738 -128 83 0
-2739 128 0
-2739 -94 0
2739 -128 94 0
-2740 128 0
-2740 -104 0
2740 -128 104 0
-2741 128 0
-2741 -113 0
2741 -128 113 0
-2742 128 0
-2742 -121 0
2742 -128 121 0
-2743 128 0
-2743 -134 0
2743 -128 134 0
-2744 128 0
-2744 -139 0
2744 -128 139 0
-2745 128 0
-2745 -143 0
2745 -128 143 0
-2746 128 0
-2746 150 0
2746 -128 -150 0
-2747 128 0
-2747 151 0
2747 -128 -151 0
-2748 129 0
-2748 -15 0
2748 -129 15 0
-2749 129 0
-2749 -30 0
2749 -129 30 0
-2750 129 0
-2750 -45 0
2750 -129 45 0
-2751 129 0
-2751 -59 0
2751 -129 59 0
-2752 129 0
-2752 -72 0
2752 -129 72 0
-2753 129 0
-2753 -84 0
2753 -129 84 0
-2754 129 0
-2754 -95 0
2754 -129 95 0
-2755 129 0
-2755 -105 0
2755 -129 105 0
-2756 129 0
-2756 -114 0
2756 -129 114 0
-2757 129 0
-2757 -122 0
2757 -129 122 0
-2758 129 0
-2758 -135 0
2758 -129 135 0
-2759 129 0
-2759 -140 0
2759 -129 140 0
-2760 129 0
-2760 -144 0
2760 -129 144 0
-2761 129 0
-2761 -147 0
2761 -129 147 0
-2762 129 0
-2762 152 0
2762 -129 -152 0
-2763 130 0
-2763 -16 0
2763 -130 16 0
-2764 130 0
-2764 -31 0
2764 -130 31 0
-2765 130 0
-2765 -46 0
2765 -130 46 0
-2766 130 0
-2766 -60 0
2766 -130 60 0
-2767 130 0
-2767 -73 0
2767 -130 73 0
-2768 130 0
-2768 -85 0
2768 -130 85 0
-2769 130 0
-2769 -96 0
2769 -130 96 0
-2770 130 0
-2770 -106 0
2770 -130 106 0
-2771 130 0
-2771 -115 0
2771 -130 115 0
-2772 130 0
-2772 -123 0
2772 -130 123 0
-2773 130 0
-2773 -136 0
2773 -130 136 0
-2774 130 0
-2774 -141 0
2774 -130 141 0
-2775 130 0
-2775 -145 0
2775 -130 145 0
-2776 130 0
-2776 -148 0
2776 -130 148 0
-2777 130 0
-2777 -150 0
2777 -130 150 0
-2778 131 0
-2778 -32 0
2778 -131 32 0
-2779 131 0
-2779 -47 0
2779 -131 47 0
-2780 131 0
-2780 -61 0
2780 -131 61 0
-2781 131 0
-2781 -74 0
2781 -131 74 0
-2782 131 0
-2782 -86 0
2782 -131 86 0
-2783 131 0
-2783 -97 0
2783 -131 97 0
-2784 131 0
-2784 -107 0
2784 -131 107 0
-2785 131 0
-2785 -116 0
2785 -131 116 0
-2786 131 0
-2786 -124 0
2786 -131 124 0
-2787 131 0
-2787 -137 0
2787 -131 137 0
-2788 131 0
-2788 -142 0
2788 -131 142 0
-2789 131 0
-2789 -146 0
2789 -131 146 0
-2790 131 0
-2790 -149 0
2790 -131 149 0
-2791 131 0
-2791 -151 0
2791 -131 151 0
-2792 131 0
-2792 -152 0
2792 -131 152 0
-2793 -10 0
-2793 1 0
2793 10 -1 0
-2794 -10 0
-2794 2 0
2794 10 -2 0
-2795 -10 0
-2795 3 0
2795 10 -3 0
-2796 -10 0
-2796 4 0
2796 10 -4 0
-2797 -10 0
-2797 5 0
2797 10 -5 0
-2798 -10 0
-2798 6 0
2798 10 -6 0
-2799 -10 0
-2799 7 0
2799 10 -7 0
-2800 -10 0
-2800 8 0
2800 10 -8 0
-2801 -10 0
-2801 9 0
2801 10 -9 0
-2802 -10 0
-2802 11 0
2802 10 -11 0
-2803 -10 0
-2803 12 0
2803 10 -12 0
-2804 -10 0
-2804 13 0
2804 10 -13 0
-2805 -10 0
-2805 14 0
2805 10 -14 0
-2806 -10 0
-2806 15 0
2806 10 -15 0
-2807 -10 0
-2807 16 0
2807 10 -16 0
-2808 -25 0
-2808 17 0
2808 25 -17 0
-2809 -25 0
-2809 18 0
2809 25 -18 0
-2810 -25 0
-2810 19 0
2810 25 -19 0
-2811 -25 0
-2811 20 0
2811 25 -20 0
-2812 -25 0
-2812 21 0
2812 25 -21 0
-2813 -25 0
-2813 22 0
2813 25 -22 0
-2814 -25 0
-2814 23 0
2814 25 -23 0
-2815 -25 0
-2815 24 0
2815 25 -24 0
-2816 -25 0
-2816 26 0
2816 25 -26 0
-2817 -25 0
-2817 27 0
2817 25 -27 0
-2818 -25 0
-2818 28 0
2818 25 -28 0
-2819 -25 0
-2819 29 0
2819 25 -29 0
-2820 -25 0
-2820 30 0
2820 25 -30 0
-2821 -25 0
-2821 31 0
2821 25 -31 0
-2822 -25 0
-2822 32 0
2822 25 -32 0
-2823 -40 0
-2823 -1 0
2823 40 1 0
-2824 -40 0
-2824 33 0
2824 40 -33 0
-2825 -40 0
-2825 34 0
2825 40 -34 0
-2826 -40 0
-2826 35 0
2826 40 -35 0
-2827 -40 0
-2827 36 0
2827 40 -36 0
-2828 -40 0
-2828 37 0
2828 40 -37 0
-2829 -40 0
-2829 38 0
2829 40 -38 0
-2830 -40 0
-2830 39 0
2830 40 -39 0
-2831 -40 0
-2831 41 0
2831 40 -41 0
-2832 -40 0
-2832 42 0
2832 40 -42 0
-2833 -40 0
-2833 43 0
2833 40 -43 0
-2834 -40 0
-2834 44 0
2834 40 -44 0
-2835 -40 0
-2835 45 0
2835 40 -45 0
-2836 -40 0
-2836 46 0
2836 40 -46 0
-2837 -40 0
-2837 47 0
2837 40 -47 0
-2838 -54 0
-2838 -2 0
2838 54 2 0
-2839 -54 0
-2839 -17 0
2839 54 17 0
-2840 -54 0
-2840 48 0
2840 54 -48 0
-2841 -54 0
-2841 49 0
2841 54 -49 0
-2842 -54 0
-2842 50 0
2842 54 -50 0
-2843 -54 0
-2843 51 0
2843 54 -51 0
-2844 -54 0
-2844 52 0
2844 54 -52 0
-2845 -54 0
-2845 53 0
2845 54 -53 0
-2846 -54 0
-2846 55 0
2846 54 -55 0
-2847 -54 0
-2847 56 0
2847 54 -56 0
-2848 -54 0
-2848 57 0
2848 54 -57 0
-2849 -54 0
-2849 58 0
2849 54 -58 0
-2850 -54 0
-2850 59 0
2850 54 -59 0
-2851 -54 0
-2851 60 0
2851 54 -60 0
-2852 -54 0
-2852 61 0
2852 54 -61 0
-2853 -67 0
-2853 -3 0
2853 67 3 0
-2854 -67 0
-2854 -18 0
2854 67 18 0
-2855 -67 0
-2855 -33 0
2855 67 33 0
-2856 -67 0
-2856 62 0
2856 67 -62 0
-2857 -67 0
-2857 63 0
2857 67 -63 0
-2858 -67 0
-2858 64 0
2858 67 -64 0
-2859 -67 0
-2859 65 0
2859 67 -65 0
-2860 -67 0
-2860 66 0
2860 67 -66 0
-2861 -67 0
-2861 68 0
2861 67 -68 0
-2862 -67 0
-2862 69 0
2862 67 -69 0
-2863 -67 0
-2863 70 0
2863 67 -70 0
-2864 -67 0
-2864 71 0
2864 67 -71 0
-2865 -67 0
-2865 72 0
2865 67 -72 0
-2866 -67 0
-2866 73 0
2866 67 -73 0
-2867 -67 0
-2867 74 0
2867 67 -74 0
-2868 -79 0
-2868 -4 0
2868 79 4 0
-2869 -79 0
-2869 -19 0
2869 79 19 0
-2870 -79 0
-2870 -34 0
2870 79 34 0
-2871 -79 0
-2871 -48 0
2871 79 48 0
-2872 -79 0
-2872 75 0
2872 79 -75 0
-2873 -79 0
-2873 76 0
2873 79 -76 0
-2874 -79 0
-2874 77 0
2874 79 -77 0
-2875 -79 0
-2875 78 0
2875 79 -78 0
-2876 -79 0
-2876 80 0
2876 79 -80 0
-2877 -79 0
-2877 81 0
2877 79 -81 0
-2878 -79 0
-2878 82 0
2878 79 -82 0
-2879 -79 0
-2879 83 0
2879 79 -83 0
-2880 -79 0
-2880 84 0
2880 79 -84 0
-2881 -79 0
-2881 85 0
2881 79 -85 0
-2882 -79 0
-2882 86 0
2882 79 -86 0
-2883 -90 0
-2883 -5 0
2883 90 5 0
-2884 -90 0
-2884 -20 0
2884 90 20 0
-2885 -90 0
-2885 -35 0
2885 90 35 0
-2886 -90 0
-2886 -49 0
2886 90 49 0
-2887 -90 0
-2887 -62 0
2887 90 62 0
-2888 -90 0
-2888 87 0
2888 90 -87 0
-2889 -90 0
-2889 88 0
2889 90 -88 0
-2890 -90 0
-2890 89 0
2890 90 -89 0
-2891 -90 0
-2891 91 0
2891 90 -91 0
-2892 -90 0
-2892 92 0
2892 90 -92 0
-2893 -90 0
-2893 93 0
2893 90 -93 0
-2894 -90 0
-2894 94 0
2894 90 -94 0
-2895 -90 0
-2895 95 0
2895 90 -95 0
-2896 -90 0
-2896 96 0
2896 90 -96 0
-2897 -90 0
-2897 97 0
2897 90 -97 0
-2898 -100 0
-2898 -6 0
2898 100 6 0
-2899 -100 0
-2899 -21 0
2899 100 21 0
-2900 -100 0
-2900 -36 0
2900 100 36 0
-2901 -100 0
-2901 -50 0
2901 100 50 0
-2902 -100 0
-2902 -63 0
2902 100 63 0
-2903 -100 0
-2903 -75 0
2903 100 75 0
-2904 -100 0
-2904 98 0
2904 100 -98 0
-2905 -100 0
-2905 99 0
2905 100 -99 0
-2906 -100 0
-2906 101 0
2906 100 -101 0
-2907 -100 0
-2907 102 0
2907 100 -102 0
-2908 -100 0
-2908 103 0
2908 100 -103 0
-2909 -100 0
-2909 104 0
2909 100 -104 0
-2910 -100 0
-2910 105 0
2910 100 -105 0
-2911 -100 0
-2911 106 0
2911 100 -106 0
-2912 -100 0
-2912 107 0
2912 100 -107 0
-2913 -109 0
-2913 -7 0
2913 109 7 0
-2914 -109 0
-2914 -22 0
2914 109 22 0
-2915 -109 0
-2915 -37 0
2915 109 37 0
-2916 -109 0
-2916 -51 0
2916 109 51 0
-2917 -109 0
-2917 -64 0
2917 109 64 0
-2918 -109 0
-2918 -76 0
2918 109 76 0
-2919 -109 0
-2919 -87 0
2919 109 87 0
-2920 -109 0
-2920 108 0
2920 109 -108 0
-2921 -109 0
-2921 110 0
2921 109 -110 0
-2922 -109 0
-2922 111 0
2922 109 -111 0
-2923 -109 0
-2923 112 0
2923 109 -112 0
-2924 -109 0
-2924 113 0
2924 109 -113 0
-2925 -109 0
-2925 114 0
2925 109 -114 0
-2926 -109 0
-2926 115 0
2926 109 -115 0
-2927 -109 0
-2927 116 0
2927 109 -116 0
-2928 -117 0
-2928 -8 0
2928 117 8 0
-2929 -117 0
-2929 -23 0
2929 117 23 0
-2930 -117 0
-2930 -38 0
2930 117 38 0
-2931 -117 0
-2931 -52 0
2931 117 52 0
-2932 -117 0
-2932 -65 0
2932 117 65 0
-2933 -117 0
-2933 -77 0
2933 117 77 0
-2934 -117 0
-2934 -88 0
2934 117 88 0
-2935 -117 0
-2935 -98 0
2935 117 98 0
-2936 -117 0
-2936 118 0
2936 117 -118 0
-2937 -117 0
-2937 119 0
2937 117 -119 0
-2938 -117 0
-2938 120 0
2938 117 -120 0
-2939 -117 0
-2939 121 0
2939 117 -121 0
-2940 -117 0
-2940 122 0
2940 117 -122 0
-2941 -117 0
-2941 123 0
2941 117 -123 0
-2942 -117 0
-2942 124 0
2942 117 -124 0
-2943 132 0
-2943 -12 0
2943 -132 12 0
-2944 132 0
-2944 -27 0
2944 -132 27 0
-2945 132 0
-2945 -42 0
2945 -132 42 0
-2946 132 0
-2946 -56 0
2946 -132 56 0
-2947 132 0
-2947 -69 0
2947 -132 69 0
-2948 132 0
-2948 -81 0
2948 -132 81 0
-2949 132 0
-2949 -92 0
2949 -132 92 0
-2950 132 0
-2950 -102 0
2950 -132 102 0
-2951 132 0
-2951 -111 0
2951 -132 111 0
-2952 132 0
-2952 -119 0
2952 -132 119 0
-2953 132 0
-2953 -126 0
2953 -132 126 0
-2954 132 0
-2954 143 0
2954 -132 -143 0
-2955 132 0
-2955 144 0
2955 -132 -144 0
-2956 132 0
-2956 145 0
2956 -132 -145 0
-2957 132 0
-2957 146 0
2957 -132 -146 0
-2958 133 0
-2958 -13 0
2958 -133 13 0
-2959 133 0
-2959 -28 0
2959 -133 28 0
-2960 133 0
-2960 -43 0
2960 -133 43 0
-2961 133 0
-2961 -57 0
2961 -133 57 0
-2962 133 0
-2962 -70 0
2962 -133 70 0
-2963 133 0
-2963 -82 0
2963 -133 82 0
-2964 133 0
-2964 -93 0
2964 -133 93 0
-2965 133 0
-2965 -103 0
2965 -133 103 0
-2966 133 0
-2966 -112 0
2966 -133 112 0
-2967 133 0
-2967 -120 0
2967 -133 120 0
-2968 133 0
-2968 -127 0
2968 -133 127 0
-2969 133 0
-2969 -138 0
2969 -133 138 0
-2970 133 0
-2970 147 0
2970 -133 -147 0
-2971 133 0
-2971 148 0
2971 -133 -148 0
-2972 133 0
-2972 149 0
2972 -133 -149 0
-2973 134 0
-2973 -14 0
2973 -134 14 0
-2974 134 0
-2974 -29 0
2974 -134 29 0
-2975 134 0
-2975 -44 0
2975 -134 44 0
-2976 134 0
-2976 -58 0
2976 -134 58 0
-2977 134 0
-2977 -71 0
2977 -134 71 0
-2978 134 0
-2978 -83 0
2978 -134 83 0
-2979 134 0
-2979 -94 0
2979 -134 94 0
-2980 134 0
-2980 -104 0
2980 -134 104 0
-2981 134 0
-2981 -113 0
2981 -134 113 0
-2982 134 0
-2982 -121 0
2982 -134 121 0
-2983 134 0
-2983 -128 0
2983 -134 128 0
-2984 134 0
-2984 -139 0
2984 -134 139 0
-2985 134 0
-2985 -143 0
2985 -134 143 0
-2986 134 0
-2986 150 0
2986 -134 -150 0
-2987 134 0
-2987 151 0
2987 -134 -151 0
-2988 135 0
-2988 -15 0
2988 -135 15 0
-2989 135 0
-2989 -30 0
2989 -135 30 0
-2990 135 0
-2990 -45 0
2990 -135 45 0
-2991 135 0
-2991 -59 0
2991 -135 59 0
-2992 135 0
-2992 -72 0
2992 -135 72 0
-2993 135 0
-2993 -84 0
2993 -135 84 0
-2994 135 0
-2994 -95 0
2994 -135 95 0
-2995 135 0
-2995 -105 0
2995 -135 105 0
-2996 135 0
-2996 -114 0
2996 -135 114 0
-2997 135 0
-2997 -122 0
2997 -135 122 0
-2998 135 0
-2998 -129 0
2998 -135 129 0
-2999 135 0
-2999 -140 0
2999 -135 140 0
-3000 135 0
-3000 -144 0
3000 -135 144 0
-3001 135 0
-3001 -147 0
3001 -135 147 0
-3002 135 0
-3002 152 0
3002 -135 -152 0
-3003 136 0
-3003 -16 0
3003 -136 16 0
-3004 136 0
-3004 -31 0
3004 -136 31 0
-3005 136 0
-3005 -46 0
3005 -136 46 0
-3006 136 0
-3006 -60 0
3006 -136 60 0
-3007 136 0
-3007 -73 0
3007 -136 73 0
-3008 136 0
-3008 -85 0
3008 -136 85 0
-3009 136 0
-3009 -96 0
3009 -136 96 0
-3010 136 0
-3010 -106 0
3010 -136 106 0
-3011 136 0
-3011 -115 0
3011 -136 115 0
-3012 136 0
-3012 -123 0
3012 -136 123 0
-3013 136 0
-3013 -130 0
3013 -136 130 0
-3014 136 0
-3014 -141 0
3014 -136 141 0
-3015 136 0
-3015 -145 0
3015 -136 145 0
-3016 136 0
-3016 -148 0
3016 -136 148 0
-3017 136 0
-3017 -150 0
3017 -136 150 0
-3018 137 0
-3018 -32 0
3018 -137 32 0
-3019 137 0
-3019 -47 0
3019 -137 47 0
-3020 137 0
-3020 -61 0
3020 -137 61 0
-3021 137 0
-3021 -74 0
3021 -137 74 0
-3022 137 0
-3022 -86 0
3022 -137 86 0
-3023 137 0
-3023 -97 0
3023 -137 97 0
-3024 137 0
-3024 -107 0
3024 -137 107 0
-3025 137 0
-3025 -116 0
3025 -137 116 0
-3026 137 0
-3026 -124 0
3026 -137 124 0
-3027 137 0
-3027 -131 0
3027 -137 131 0
-3028 137 0
-3028 -142 0
3028 -137 142 0
-3029 137 0
-3029 -146 0
3029 -137 146 0
-3030 137 0
-3030 -149 0
3030 -137 149 0
-3031 137 0
-3031 -151 0
3031 -137 151 0
-3032 137 0
-3032 -152 0
3032 -137 152 0
-3033 -11 0
-3033 1 0
3033 11 -1 0
-3034 -11 0
-3034 2 0
3034 11 -2 0
-3035 -11 0
-3035 3 0
3035 11 -3 0
-3036 -11 0
-3036 4 0
3036 11 -4 0
-3037 -11 0
-3037 5 0
3037 11 -5 0
-3038 -11 0
-3038 6 0
3038 11 -6 0
-3039 -11 0
-3039 7 0
3039 11 -7 0
-3040 -11 0
-3040 8 0
3040 11 -8 0
-3041 -11 0
-3041 9 0
3041 11 -9 0
-3042 -11 0
-3042 10 0
3042 11 -10 0
-3043 -11 0
-3043 12 0
3043 11 -12 0
-3044 -11 0
-3044 13 0
3044 11 -13 0
-3045 -11 0
-3045 14 0
3045 11 -14 0
-3046 -11 0
-3046 15 0
3046 11 -15 0
-3047 -11 0
-3047 16 0
3047 11 -16 0
-3048 -26 0
-3048 17 0
3048 26 -17 0
-3049 -26 0
-3049 18 0
3049 26 -18 0
-3050 -26 0
-3050 19 0
3050 26 -19 0
-3051 -26 0
-3051 20 0
3051 26 -20 0
-3052 -26 0
-3052 21 0
3052 26 -21 0
-3053 -26 0
-3053 22 0
3053 26 -22 0
-3054 -26 0
-3054 23 0
3054 26 -23 0
-3055 -26 0
-3055 24 0
3055 26 -24 0
-3056 -26 0
-3056 25 0
3056 26 -25 0
-3057 -26 0
-3057 27 0
3057 26 -27 0
-3058 -26 0
-3058 28 0
3058 26 -28 0
-3059 -26 0
-3059 29 0
3059 26 -29 0
-3060 -26 0
-3060 30 0
3060 26 -30 0
-3061 -26 0
-3061 31 0
3061 26 -31 0
-3062 -26 0
-3062 32 0
3062 26 -32 0
-3063 -41 0
-3063 -1 0
3063 41 1 0
-3064 -41 0
-3064 33 0
3064 41 -33 0
-3065 -41 0
-3065 34 0
3065 41 -34 0
-3066 -41 0
-3066 35 0
3066 41 -35 0
-3067 -41 0
-3067 36 0
3067 41 -36 0
-3068 -41 0
-3068 37 0
3068 41 -37 0
-3069 -41 0
-3069 38 0
3069 41 -38 0
-3070 -41 0
-3070 39 0
3070 41 -39 0
-3071 -41 0
-3071 40 0
3071 41 -40 0
-3072 -41 0
-3072 42 0
3072 41 -42 0
-3073 -41 0
-3073 43 0
3073 41 -43 0
-3074 -41 0
-3074 44 0
3074 41 -44 0
-3075 -41 0
-3075 45 0
3075 41 -45 0
-3076 -41 0
-3076 46 0
3076 41 -46 0
-3077 -41 0
-3077 47 0
3077 41 -47 0
-3078 -55 0
-3078 -2 0
3078 55 2 0
-3079 -55 0
-3079 -17 0
3079 55 17 0
-3080 -55 0
-3080 48 0
3080 55 -48 0
-3081 -55 0
-3081 49 0
3081 55 -49 0
-3082 -55 0
-3082 50 0
3082 55 -50 0
-3083 -55 0
-3083 51 0
3083 55 -51 0
-3084 -55 0
-3084 52 0
3084 55 -52 0
-3085 -55 0
-3085 53 0
3085 55 -53 0
-3086 -55 0
-3086 54 0
3086 55 -54 0
-3087 -55 0
-3087 56 0
3087 55 -56 0
-3088 -55 0
-3088 57 0
3088 55 -57 0
-3089 -55 0
-3089 58 0
3089 55 -58 0
-3090 -55 0
-3090 59 0
3090 55 -59 0
-3091 -55 0
-3091 60 0
3091 55 -60 0
-3092 -55 0
-3092 61 0
3092 55 -61 0
-3093 -68 0
-3093 -3 0
3093 68 3 0
-3094 -68 0
-3094 -18 0
3094 68 18 0
-3095 -68 0
-3095 -33 0
3095 68 33 0
-3096 -68 0
-3096 62 0
3096 68 -62 0
-3097 -68 0
-3097 63 0
3097 68 -63 0
-3098 -68 0
-3098 64 0
3098 68 -64 0
-3099 -68 0
-3099 65 0
3099 68 -65 0
-3100 -68 0
-3100 66 0
3100 68 -66 0
-3101 -68 0
-3101 67 0
3101 68 -67 0
-3102 -68 0
-3102 69 0
3102 68 -69 0
-3103 -68 0
-3103 70 0
3103 68 -70 0
-3104 -68 0
-3104 71 0
3104 68 -71 0
-3105 -68 0
-3105 72 0
3105 68 -72 0
-3106 -68 0
-3106 73 0
3106 68 -73 0
-3107 -68 0
-3107 74 0
3107 68 -74 0
-3108 -80 0
-3108 -4 0
3108 80 4 0
-3109 -80 0
-3109 -19 0
3109 80 19 0
-3110 -80 0
-3110 -34 0
3110 80 34 0
-3111 -80 0
-3111 -48 0
3111 80 48 0
-3112 -80 0
-3112 75 0
3112 80 -75 0
-3113 -80 0
-3113 76 0
3113 80 -76 0
-3114 -80 0
-3114 77 0
3114 80 -77 0
-3115 -80 0
-3115 78 0
3115 80 -78 0
-3116 -80 0
-3116 79 0
3116 80 -79 0
-3117 -80 0
-3117 81 0
3117 80 -81 0
-3118 -80 0
-3118 82 0
3118 80 -82 0
-3119 -80 0
-3119 83 0
3119 80 -83 0
-3120 -80 0
-3120 84 0
3120 80 -84 0
-3121 -80 0
-3121 85 0
3121 80 -85 0
-3122 -80 0
-3122 86 0
3122 80 -86 0
-3123 -91 0
-3123 -5 0
3123 91 5 0
-3124 -91 0
-3124 -20 0
3124 91 20 0
-3125 -91 0
-3125 -35 0
3125 91 35 0
-3126 -91 0
-3126 -49 0
3126 91 49 0
-3127 -91 0
-3127 -62 0
3127 91 62 0
-3128 -91 0
-3128 87 0
3128 91 -87 0
-3129 -91 0
-3129 88 0
3129 91 -88 0
-3130 -91 0
-3130 89 0
3130 91 -89 0
-3131 -91 0
-3131 90 0
3131 91 -90 0
-3132 -91 0
-3132 92 0
3132 91 -92 0
-3133 -91 0
-3133 93 0
3133 91 -93 0
-3134 -91 0
-3134 94 0
3134 91 -94 0
-3135 -91 0
-3135 95 0
3135 91 -95 0
-3136 -91 0
-3136 96 0
3136 91 -96 0
-3137 -91 0
-3137 97 0
3137 91 -97 0
-3138 -101 0
-3138 -6 0
3138 101 6 0
-3139 -101 0
-3139 -21 0
3139 101 21 0
-3140 -101 0
-3140 -36 0
3140 101 36 0
-3141 -101 0
-3141 -50 0
3141 101 50 0
-3142 -101 0
-3142 -63 0
3142 101 63 0
-3143 -101 0
-3143 -75 0
3143 101 75 0
-3144 -101 0
-3144 98 0
3144 101 -98 0
-3145 -101 0
-3145 99 0
3145 101 -99 0
-3146 -101 0
-3146 100 0
3146 101 -100 0
-3147 -101 0
-3147 102 0
3147 101 -102 0
-3148 -101 0
-3148 103 0
3148 101 -103 0
-3149 -101 0
-3149 104 0
3149 101 -104 0
-3150 -101 0
-3150 105 0
3150 101 -105 0
-3151 -101 0
-3151 106 0
3151 101 -106 0
-3152 -101 0
-3152 107 0
3152 101 -107 0
-3153 -110 0
-3153 -7 0
3153 110 7 0
-3154 -110 0
-3154 -22 0
3154 110 22 0
-3155 -110 0
-3155 -37 0
3155 110 37 0
-3156 -110 0
-3156 -51 0
3156 110 51 0
-3157 -110 0
-3157 -64 0
3157 110 64 0
-3158 -110 0
-3158 -76 0
3158 110 76 0
-3159 -110 0
-3159 -87 0
3159 110 87 0
-3160 -110 0
-3160 108 0
3160 110 -108 0
-3161 -110 0
-3161 109 0
3161 110 -109 0
-3162 -110 0
-3162 111 0
3162 110 -111 0
-3163 -110 0
-3163 112 0
3163 110 -112 0
-3164 -110 0
-3164 113 0
3164 110 -113 0
-3165 -110 0
-3165 114 0
3165 110 -114 0
-3166 -110 0
-3166 115 0
3166 110 -115 0
-3167 -110 0
-3167 116 0
3167 110 -116 0
-3168 -118 0
-3168 -8 0
3168 118 8 0
-3169 -118 0
-3169 -23 0
3169 118 23 0
-3170 -118 0
-3170 -38 0
3170 118 38 0
-3171 -118 0
-3171 -52 0
3171 118 52 0
-3172 -118 0
-3172 -65 0
3172 118 65 0
-3173 -118 0
-3173 -77 0
3173 118 77 0
-3174 -118 0
-3174 -88 0
3174 118 88 0
-3175 -118 0
-3175 -98 0
3175 118 98 0
-3176 -118 0
-3176 117 0
3176 118 -117 0
-3177 -118 0
-3177 119 0
3177 118 -119 0
-3178 -118 0
-3178 120 0
3178 118 -120 0
-3179 -118 0
-3179 121 0
3179 118 -121 0
-3180 -118 0
-3180 122 0
3180 118 -122 0
-3181 -118 0
-3181 123 0
3181 118 -123 0
-3182 -118 0
-3182 124 0
3182 118 -124 0
-3183 -125 0
-3183 -9 0
3183 125 9 0
-3184 -125 0
-3184 -24 0
3184 125 24 0
-3185 -125 0
-3185 -39 0
3185 125 39 0
-3186 -125 0
-3186 -53 0
3186 125 53 0
-3187 -125 0
-3187 -66 0
3187 125 66 0
-3188 -125 0
-3188 -78 0
3188 125 78 0
-3189 -125 0
-3189 -89 0
3189 125 89 0
-3190 -125 0
-3190 -99 0
3190 125 99 0
-3191 -125 0
-3191 -108 0
3191 125 108 0
-3192 -125 0
-3192 126 0
3192 125 -126 0
-3193 -125 0
-3193 127 0
3193 125 -127 0
-3194 -125 0
-3194 128 0
3194 125 -128 0
-3195 -125 0
-3195 129 0
3195 125 -129 0
-3196 -125 0
-3196 130 0
3196 125 -130 0
-3197 -125 0
-3197 131 0
3197 125 -131 0
-3198 138 0
-3198 -13 0
3198 -138 13 0
-3199 138 0
-3199 -28 0
3199 -138 28 0
-3200 138 0
-3200 -43 0
3200 -138 43 0
-3201 138 0
-3201 -57 0
3201 -138 57 0
-3202 138 0
-3202 -70 0
3202 -138 70 0
-3203 138 0
-3203 -82 0
3203 -138 82 0
-3204 138 0
-3204 -93 0
3204 -138 93 0
-3205 138 0
-3205 -103 0
3205 -138 103 0
-3206 138 0
-3206 -112 0
3206 -138 112 0
-3207 138 0
-3207 -120 0
3207 -138 120 0
-3208 138 0
-3208 -127 0
3208 -138 127 0
-3209 138 0
-3209 -133 0
3209 -138 133 0
-3210 138 0
-3210 147 0
3210 -138 -147 0
-3211 138 0
-3211 148 0
3211 -138 -148 0
-3212 138 0
-3212 149 0
3212 -138 -149 0
-3213 139 0
-3213 -14 0
3213 -139 14 0
-3214 139 0
-3214 -29 0
3214 -139 29 0
-3215 139 0
-3215 -44 0
3215 -139 44 0
-3216 139 0
-3216 -58 0
3216 -139 58 0
-3217 139 0
-3217 -71 0
3217 -139 71 0
-3218 139 0
-3218 -83 0
3218 -139 83 0
-3219 139 0
-3219 -94 0
3219 -139 94 0
-3220 139 0
-3220 -104 0
3220 -139 104 0
-3221 139 0
-3221 -113 0
3221 -139 113 0
-3222 139 0
-3222 -121 0
3222 -139 121 0
-3223 139 0
-3223 -128 0
3223 -139 128 0
-3224 139 0
-3224 -134 0
3224 -139 134 0
-3225 139 0
-3225 -143 0
3225 -139 143 0
-3226 139 0
-3226 150 0
3226 -139 -150 0
-3227 139 0
-3227 151 0
3227 -139 -151 0
-3228 140 0
-3228 -15 0
3228 -140 15 0
-3229 140 0
-3229 -30 0
3229 -140 30 0
-3230 140 0
-3230 -45 0
3230 -140 45 0
-3231 140 0
-3231 -59 0
3231 -140 59 0
-3232 140 0
-3232 -72 0
3232 -140 72 0
-3233 140 0
-3233 -84 0
3233 -140 84 0
-3234 140 0
-3234 -95 0
3234 -140 95 0
-3235 140 0
-3235 -105 0
3235 -140 105 0
-3236 140 0
-3236 -114 0
3236 -140 114 0
-3237 140 0
-3237 -122 0
3237 -140 122 0
-3238 140 0
-3238 -129 0
3238 -140 129 0
-3239 140 0
-3239 -135 0
3239 -140 135 0
-3240 140 0
-3240 -144 0
3240 -140 144 0
-3241 140 0
-3241 -147 0
3241 -140 147 0
-3242 140 0
-3242 152 0
3242 -140 -152 0
-3243 141 0
-3243 -16 0
3243 -141 16 0
-3244 141 0
-3244 -31 0
3244 -141 31 0
-3245 141 0
-3245 -46 0
3245 -141 46 0
-3246 141 0
-3246 -60 0
3246 -141 60 0
-3247 141 0
-3247 -73 0
3247 -141 73 0
-3248 141 0
-3248 -85 0
3248 -141 85 0
-3249 141 0
-3249 -96 0
3249 -141 96 0
-3250 141 0
-3250 -106 0
3250 -141 106 0
-3251 141 0
-3251 -115 0
3251 -141 115 0
-3252 141 0
-3252 -123 0
3252 -141 123 0
-3253 141 0
-3253 -130 0
3253 -141 130 0
-3254 141 0
-3254 -136 0
3254 -141 136 0
-3255 141 0
-3255 -145 0
3255 -141 145 0
-3256 141 0
-3256 -148 0
3256 -141 148 0
-3257 141 0
-3257 -150 0
3257 -141 150 0
-3258 142 0
-3258 -32 0
3258 -142 32 0
-3259 142 0
-3259 -47 0
3259 -142 47 0
-3260 142 0
-3260 -61 0
3260 -142 61 0
-3261 142 0
-3261 -74 0
3261 -142 74 0
-3262 142 0
-3262 -86 0
3262 -142 86 0
-3263 142 0
-3263 -97 0
3263 -142 97 0
-3264 142 0
-3264 -107 0
3264 -142 107 0
-3265 142 0
-3265 -116 0
3265 -142 116 0
-3266 142 0
-3266 -124 0
3266 -142 124 0
-3267 142 0
-3267 -131 0
3267 -142 131 0
-3268 142 0
-3268 -137 0
3268 -142 137 0
-3269 142 0
-3269 -146 0
3269 -142 146 0
-3270 142 0
-3270 -149 0
3270 -142 149 0
-3271 142 0
-3271 -151 0
3271 -142 151 0
-3272 142 0
-3272 -152 0
3272 -142 152 0
-3273 -12 0
-3273 1 0
3273 12 -1 0
-3274 -12 0
-3274 2 0
3274 12 -2 0
-3275 -12 0
-3275 3 0
3275 12 -3 0
-3276 -12 0
-3276 4 0
3276 12 -4 0
-3277 -12 0
-3277 5 0
3277 12 -5 0
-3278 -12 0
-3278 6 0
3278 12 -6 0
-3279 -12 0
-3279 7 0
3279 12 -7 0
-3280 -12 0
-3280 8 0
3280 12 -8 0
-3281 -12 0
-3281 9 0
3281 12 -9 0
-3282 -12 0
-3282 10 0
3282 12 -10 0
-3283 -12 0
-3283 11 0
3283 12 -11 0
-3284 -12 0
-3284 13 0
3284 12 -13 0
-3285 -12 0
-3285 14 0
3285 12 -14 0
-3286 -12 0
-3286 15 0
3286 12 -15 0
-3287 -12 0
-3287 16 0
3287 12 -16 0
-3288 -27 0
-3288 17 0
3288 27 -17 0
-3289 -27 0
-3289 18 0
3289 27 -18 0
-3290 -27 0
-3290 19 0
3290 27 -19 0
-3291 -27 0
-3291 20 0
3291 27 -20 0
-3292 -27 0
-3292 21 0
3292 27 -21 0
-3293 -27 0
-3293 22 0
3293 27 -22 0
-3294 -27 0
-3294 23 0
3294 27 -23 0
-3295 -27 0
-3295 24 0
3295 27 -24 0
-3296 -27 0
-3296 25 0
3296 27 -25 0
-3297 -27 0
-3297 26 0
3297 27 -26 0
-3298 -27 0
-3298 28 0
3298 27 -28 0
-3299 -27 0
-3299 29 0
3299 27 -29 0
-3300 -27 0
-3300 30 0
3300 27 -30 0
-3301 -27 0
-3301 31 0
3301 27 -31 0
-3302 -27 0
-3302 32 0
3302 27 -32 0
-3303 -42 0
-3303 -1 0
3303 42 1 0
-3304 -42 0
-3304 33 0
3304 42 -33 0
-3305 -42 0
-3305 34 0
3305 42 -34 0
-3306 -42 0
-3306 35 0
3306 42 -35 0
-3307 -42 0
-3307 36 0
3307 42 -36 0
-3308 -42 0
-3308 37 0
3308 42 -37 0
-3309 -42 0
-3309 38 0
3309 42 -38 0
-3310 -42 0
-3310 39 0
3310 42 -39 0
-3311 -42 0
-3311 40 0
3311 42 -40 0
-3312 -42 0
-3312 41 0
3312 42 -41 0
-3313 -42 0
-3313 43 0
3313 42 -43 0
-3314 -42 0
-3314 44 0
3314 42 -44 0
-3315 -42 0
-3315 45 0
3315 42 -45 0
-3316 -42 0
-3316 46 0
3316 42 -46 0
-3317 -42 0
-3317 47 0
3317 42 -47 0
-3318 -56 0
-3318 -2 0
3318 56 2 0
-3319 -56 0
-3319 -17 0
3319 56 17 0
-3320 -56 0
-3320 48 0
3320 56 -48 0
-3321 -56 0
-3321 49 0
3321 56 -49 0
-3322 -56 0
-3322 50 0
3322 56 -50 0
-3323 -56 0
-3323 51 0
3323 56 -51 0
-3324 -56 0
-3324 52 0
3324 56 -52 0
-3325 -56 0
-3325 53 0
3325 56 -53 0
-3326 -56 0
-3326 54 0
3326 56 -54 0
-3327 -56 0
-3327 55 0
3327 56 -55 0
-3328 -56 0
-3328 57 0
3328 56 -57 0
-3329 -56 0
-3329 58 0
3329 56 -58 0
-3330 -56 0
-3330 59 0
3330 56 -59 0
-3331 -56 0
-3331 60 0
3331 56 -60 0
-3332 -56 0
-3332 61 0
3332 56 -61 0
-3333 -69 0
-3333 -3 0
3333 69 3 0
-3334 -69 0
-3334 -18 0
3334 69 18 0
-3335 -69 0
-3335 -33 0
3335 69 33 0
-3336 -69 0
-3336 62 0
3336 69 -62 0
-3337 -69 0
-3337 63 0
3337 69 -63 0
-3338 -69 0
-3338 64 0
3338 69 -64 0
-3339 -69 0
-3339 65 0
3339 69 -65 0
-3340 -69 0
-3340 66 0
3340 69 -66 0
-3341 -69 0
-3341 67 0
3341 69 -67 0
-3342 -69 0
-3342 68 0
3342 69 -68 0
-3343 -69 0
-3343 70 0
3343 69 -70 0
-3344 -69 0
-3344 71 0
3344 69 -71 0
-3345 -69 0
-3345 72 0
3345 69 -72 0
-3346 -69 0
-3346 73 0
3346 69 -73 0
-3347 -69 0
-3347 74 0
3347 69 -74 0
-3348 -81 0
-3348 -4 0
3348 81 4 0
-3349 -81 0
-3349 -19 0
3349 81 19 0
-3350 -81 0
-3350 -34 0
3350 81 34 0
-3351 -81 0
-3351 -48 0
3351 81 48 0
-3352 -81 0
-3352 75 0
3352 81 -75 0
-3353 -81 0
-3353 76 0
3353 81 -76 0
-3354 -81 0
-3354 77 0
3354 81 -77 0
-3355 -81 0
-3355 78 0
3355 81 -78 0
-3356 -81 0
-3356 79 0
3356 81 -79 0
-3357 -81 0
-3357 80 0
3357 81 -80 0
-3358 -81 0
-3358 82 0
3358 81 -82 0
-3359 -81 0
-3359 83 0
3359 81 -83 0
-3360 -81 0
-3360 84 0
3360 81 -84 0
-3361 -81 0
-3361 85 0
3361 81 -85 0
-3362 -81 0
-3362 86 0
3362 81 -86 0
-3363 -92 0
-3363 -5 0
3363 92 5 0
-3364 -92 0
-3364 -20 0
3364 92 20 0
-3365 -92 0
-3365 -35 0
3365 92 35 0
-3366 -92 0
-3366 -49 0
3366 92 49 0
-3367 -92 0
-3367 -62 0
3367 92 62 0
-3368 -92 0
-3368 87 0
3368 92 -87 0
-3369 -92 0
-3369 88 0
3369 92 -88 0
-3370 -92 0
-3370 89 0
3370 92 -89 0
-3371 -92 0
-3371 90 0
3371 92 -90 0
-3372 -92 0
-3372 91 0
3372 92 -91 0
-3373 -92 0
-3373 93 0
3373 92 -93 0
-3374 -92 0
-3374 94 0
3374 92 -94 0
-3375 -92 0
-3375 95 0
3375 92 -95 0
-3376 -92 0
-3376 96 0
3376 92 -96 0
-3377 -92 0
-3377 97 0
3377 92 -97 0
-3378 -102 0
-3378 -6 0
3378 102 6 0
-3379 -102 0
-3379 -21 0
3379 102 21 0
-3380 -102 0
-3380 -36 0
3380 102 36 0
-3381 -102 0
-3381 -50 0
3381 102 50 0
-3382 -102 0
-3382 -63 0
3382 102 63 0
-3383 -102 0
-3383 -75 0
3383 102 75 0
-3384 -102 0
-3384 98 0
3384 102 -98 0
-3385 -102 0
-3385 99 0
3385 102 -99 0
-3386 -102 0
-3386 100 0
3386 102 -100 0
-3387 -102 0
-3387 101 0
3387 102 -101 0
-3388 -102 0
-3388 103 0
3388 102 -103 0
-3389 -102 0
-3389 104 0
3389 102 -104 0
-3390 -102 0
-3390 105 0
3390 102 -105 0
-3391 -102 0
-3391 106 0
3391 102 -106 0
-3392 -102 0
-3392 107 0
3392 102 -107 0
-3393 -111 0
-3393 -7 0
3393 111 7 0
-3394 -111 0
-3394 -22 0
3394 111 22 0
-3395 -111 0
-3395 -37 0
3395 111 37 0
-3396 -111 0
-3396 -51 0
3396 111 51 0
-3397 -111 0
-3397 -64 0
3397 111 64 0
-3398 -111 0
-3398 -76 0
3398 111 76 0
-3399 -111 0
-3399 -87 0
3399 111 87 0
-3400 -111 0
-3400 108 0
3400 111 -108 0
-3401 -111 0
-3401 109 0
3401 111 -109 0
-3402 -111 0
-3402 110 0
3402 111 -110 0
-3403 -111 0
-3403 112 0
3403 111 -112 0
-3404 -111 0
-3404 113 0
3404 111 -113 0
-3405 -111 0
-3405 114 0
3405 111 -114 0
-3406 -111 0
-3406 115 0
3406 111 -115 0
-3407 -111 0
-3407 116 0
3407 111 -116 0
-3408 -119 0
-3408 -8 0
3408 119 8 0
-3409 -119 0
-3409 -23 0
3409 119 23 0
-3410 -119 0
-3410 -38 0
3410 119 38 0
-3411 -119 0
-3411 -52 0
3411 119 52 0
-3412 -119 0
-3412 -65 0
3412 119 65 0
-3413 -119 0
-3413 -77 0
3413 119 77 0
-3414 -119 0
-3414 -88 0
3414 119 88 0
-3415 -119 0
-3415 -98 0
3415 119 98 0
-3416 -119 0
-3416 117 0
3416 119 -117 0
-3417 -119 0
-3417 118 0
3417 119 -118 0
-3418 -119 0
-3418 120 0
3418 119 -120 0
-3419 -119 0
-3419 121 0
3419 119 -121 0
-3420 -119 0
-3420 122 0
3420 119 -122 0
-3421 -119 0
-3421 123 0
3421 119 -123 0
-3422 -119 0
-3422 124 0
3422 119 -124 0
-3423 -126 0
-3423 -9 0
3423 126 9 0
-3424 -126 0
-3424 -24 0
3424 126 24 0
-3425 -126 0
-3425 -39 0
3425 126 39 0
-3426 -126 0
-3426 -53 0
3426 126 53 0
-3427 -126 0
-3427 -66 0
3427 126 66 0
-3428 -126 0
-3428 -78 0
3428 126 78 0
-3429 -126 0
-3429 -89 0
3429 126 89 0
-3430 -126 0
-3430 -99 0
3430 126 99 0
-3431 -126 0
-3431 -108 0
3431 126 108 0
-3432 -126 0
-3432 125 0
3432 126 -125 0
-3433 -126 0
-3433 127 0
3433 126 -127 0
-3434 -126 0
-3434 128 0
3434 126 -128 0
-3435 -126 0
-3435 129 0
3435 126 -129 0
-3436 -126 0
-3436 130 0
3436 126 -130 0
-3437 -126 0
-3437 131 0
3437 126 -131 0
-3438 -132 0
-3438 -10 0
3438 132 10 0
-3439 -132 0
-3439 -25 0
3439 132 25 0
-3440 -132 0
-3440 -40 0
3440 132 40 0
-3441 -132 0
-3441 -54 0
3441 132 54 0
-3442 -132 0
-3442 -67 0
3442 132 67 0
-3443 -132 0
-3443 -79 0
3443 132 79 0
-3444 -132 0
-3444 -90 0
3444 132 90 0
-3445 -132 0
-3445 -100 0
3445 132 100 0
-3446 -132 0
-3446 -109 0
3446 132 109 0
-3447 -132 0
-3447 -117 0
3447 132 117 0
-3448 -132 0
-3448 133 0
3448 132 -133 0
-3449 -132 0
-3449 134 0
3449 132 -134 0
-3450 -132 0
-3450 135 0
3450 132 -135 0
-3451 -132 0
-3451 136 0
3451 132 -136 0
-3452 -132 0
-3452 137 0
3452 132 -137 0
-3453 143 0
-3453 -14 0
3453 -143 14 0
-3454 143 0
-3454 -29 0
3454 -143 29 0
-3455 143 0
-3455 -44 0
3455 -143 44 0
-3456 143 0
-3456 -58 0
3456 -143 58 0
-3457 143 0
-3457 -71 0
3457 -143 71 0
-3458 143 0
-3458 -83 0
3458 -143 83 0
-3459 143 0
-3459 -94 0
3459 -143 94 0
-3460 143 0
-3460 -104 0
3460 -143 104 0
-3461 143 0
-3461 -113 0
3461 -143 113 0
-3462 143 0
-3462 -121 0
3462 -143 121 0
-3463 143 0
-3463 -128 0
3463 -143 128 0
-3464 143 0
-3464 -134 0
3464 -143 134 0
-3465 143 0
-3465 -139 0
3465 -143 139 0
-3466 143 0
-3466 150 0
3466 -143 -150 0
-3467 143 0
-3467 151 0
3467 -143 -151 0
-3468 144 0
-3468 -15 0
3468 -144 15 0
-3469 144 0
-3469 -30 0
3469 -144 30 0
-3470 144 0
-3470 -45 0
3470 -144 45 0
-3471 144 0
-3471 -59 0
3471 -144 59 0
-3472 144 0
-3472 -72 0
3472 -144 72 0
-3473 144 0
-3473 -84 0
3473 -144 84 0
-3474 144 0
-3474 -95 0
3474 -144 95 0
-3475 144 0
-3475 -105 0
3475 -144 105 0
-3476 144 0
-3476 -114 0
3476 -144 114 0
-3477 144 0
-3477 -122 0
3477 -144 122 0
-3478 144 0
-3478 -129 0
3478 -144 129 0
-3479 144 0
-3479 -135 0
3479 -144 135 0
-3480 144 0
-3480 -140 0
3480 -144 140 0
-3481 144 0
-3481 -147 0
3481 -144 147 0
-3482 144 0
-3482 152 0
3482 -144 -152 0
-3483 145 0
-3483 -16 0
3483 -145 16 0
-3484 145 0
-3484 -31 0
3484 -145 31 0
-3485 145 0
-3485 -46 0
3485 -145 46 0
-3486 145 0
-3486 -60 0
3486 -145 60 0
-3487 145 0
-3487 -73 0
3487 -145 73 0
-3488 145 0
-3488 -85 0
3488 -145 85 0
-3489 145 0
-3489 -96 0
3489 -145 96 0
-3490 145 0
-3490 -106 0
3490 -145 106 0
-3491 145 0
-3491 -115 0
3491 -145 115 0
-3492 145 0
-3492 -123 0
3492 -145 123 0
-3493 145 0
-3493 -130 0
3493 -145 130 0
-3494 145 0
-3494 -136 0
3494 -145 136 0
-3495 145 0
-3495 -141 0
3495 -145 141 0
-3496 145 0
-3496 -148 0
3496 -145 148 0
-3497 145 0
-3497 -150 0
3497 -145 150 0
-3498 146 0
-3498 -32 0
3498 -146 32 0
-3499 146 0
-3499 -47 0
3499 -146 47 0
-3500 146 0
-3500 -61 0
3500 -146 61 0
-3501 146 0
-3501 -74 0
3501 -146 74 0
-3502 146 0
-3502 -86 0
3502 -146 86 0
-3503 146 0
-3503 -97 0
3503 -146 97 0
-3504 146 0
-3504 -107 0
3504 -146 107 0
-3505 146 0
-3505 -116 0
3505 -146 116 0
-3506 146 0
-3506 -124 0
3506 -146 124 0
-3507 146 0
-3507 -131 0
3507 -146 131 0
-3508 146 0
-3508 -137 0
3508 -146 137 0
-3509 146 0
-3509 -142 0
3509 -146 142 0
-3510 146 0
-3510 -149 0
3510 -146 149 0
-3511 146 0
-3511 -151 0
3511 -146 151 0
-3512 146 0
-3512 -152 0
3512 -146 152 0
-3513 -13 0
-3513 1 0
3513 13 -1 0
-3514 -13 0
-3514 2 0
3514 13 -2 0
-3515 -13 0
-3515 3 0
3515 13 -3 0
-3516 -13 0
-3516 4 0
3516 13 -4 0
-3517 -13 0
-3517 5 0
3517 13 -5 0
-3518 -13 0
-3518 6 0
3518 13 -6 0
-3519 -13 0
-3519 7 0
3519 13 -7 0
-3520 -13 0
-3520 8 0
3520 13 -8 0
-3521 -13 0
-3521 9 0
3521 13 -9 0
-3522 -13 0
-3522 10 0
3522 13 -10 0
-3523 -13 0
-3523 11 0
3523 13 -11 0
-3524 -13 0
-3524 12 0
3524 13 -12 0
-3525 -13 0
-3525 14 0
3525 13 -14 0
-3526 -13 0
-3526 15 0
3526 13 -15 0
-3527 -13 0
-3527 16 0
3527 13 -16 0
-3528 -28 0
-3528 17 0
3528 28 -17 0
-3529 -28 0
-3529 18 0
3529 28 -18 0
-3530 -28 0
-3530 19 0
3530 28 -19 0
-3531 -28 0
-3531 20 0
3531 28 -20 0
-3532 -28 0
-3532 21 0
3532 28 -21 0
-3533 -28 0
-3533 22 0
3533 28 -22 0
-3534 -28 0
-3534 23 0
3534 28 -23 0
-3535 -28 0
-3535 24 0
3535 28 -24 0
-3536 -28 0
-3536 25 0
3536 28 -25 0
-3537 -28 0
-3537 26 0
3537 28 -26 0
-3538 -28 0
-3538 27 0
3538 28 -27 0
-3539 -28 0
-3539 29 0
3539 28 -29 0
-3540 -28 0
-3540 30 0
3540 28 -30 0
-3541 -28 0
-3541 31 0
3541 28 -31 0
-3542 -28 0
-3542 32 0
3542 28 -32 0
-3543 -43 0
-3543 -1 0
3543 43 1 0
-3544 -43 0
-3544 33 0
3544 43 -33 0
-3545 -43 0
-3545 34 0
3545 43 -34 0
-3546 -43 0
-3546 35 0
3546 43 -35 0
-3547 -43 0
-3547 36 0
3547 43 -36 0
-3548 -43 0
-3548 37 0
3548 43 -37 0
-3549 -43 0
-3549 38 0
3549 43 -38 0
-3550 -43 0
-3550 39 0
3550 43 -39 0
-3551 -43 0
-3551 40 0
3551 43 -40 0
-3552 -43 0
-3552 41 0
3552 43 -41 0
-3553 -43 0
-3553 42 0
3553 43 -42 0
-3554 -43 0
-3554 44 0
3554 43 -44 0
-3555 -43 0
-3555 45 0
3555 43 -45 0
-3556 -43 0
-3556 46 0
3556 43 -46 0
-3557 -43 0
-3557 47 0
3557 43 -47 0
-3558 -57 0
-3558 -2 0
3558 57 2 0
-3559 -57 0
-3559 -17 0
3559 57 17 0
-3560 -57 0
-3560 48 0
3560 57 -48 0
-3561 -57 0
-3561 49 0
3561 57 -49 0
-3562 -57 0
-3562 50 0
3562 57 -50 0
-3563 -57 0
-3563 51 0
3563 57 -51 0
-3564 -57 0
-3564 52 0
3564 57 -52 0
-3565 -57 0
-3565 53 0
3565 57 -53 0
-3566 -57 0
-3566 54 0
3566 57 -54 0
-3567 -57 0
-3567 55 0
3567 57 -55 0
-3568 -57 0
-3568 56 0
3568 57 -56 0
-3569 -57 0
-3569 58 0
3569 57 -58 0
-3570 -57 0
-3570 59 0
3570 57 -59 0
-3571 -57 0
-3571 60 0
3571 57 -60 0
-3572 -57 0
-3572 61 0
3572 57 -61 0
-3573 -70 0
-3573 -3 0
3573 70 3 0
-3574 -70 0
-3574 -18 0
3574 70 18 0
-3575 -70 0
-3575 -33 0
3575 70 33 0
-3576 -70 0
-3576 62 0
3576 70 -62 0
-3577 -70 0
-3577 63 0
3577 70 -63 0
-3578 -70 0
-3578 64 0
3578 70 -64 0
-3579 -70 0
-3579 65 0
3579 70 -65 0
-3580 -70 0
-3580 66 0
3580 70 -66 0
-3581 -70 0
-3581 67 0
3581 70 -67 0
-3582 -70 0
-3582 68 0
3582 70 -68 0
-3583 -70 0
-3583 69 0
3583 70 -69 0
-3584 -70 0
-3584 71 0
3584 70 -71 0
-3585 -70 0
-3585 72 0
3585 70 -72 0
-3586 -70 0
-3586 73 0
3586 70 -73 0
-3587 -70 0
-3587 74 0
3587 70 -74 0
-3588 -82 0
-3588 -4 0
3588 82 4 0
-3589 -82 0
-3589 -19 0
3589 82 19 0
-3590 -82 0
-3590 -34 0
3590 82 34 0
-3591 -82 0
-3591 -48 0
3591 82 48 0
-3592 -82 0
-3592 75 0
3592 82 -75 0
-3593 -82 0
-3593 76 0
3593 82 -76 0
-3594 -82 0
-3594 77 0
3594 82 -77 0
-3595 -82 0
-3595 78 0
3595 82 -78 0
-3596 -82 0
-3596 79 0
3596 82 -79 0
-3597 -82 0
-3597 80 0
3597 82 -80 0
-3598 -82 0
-3598 81 0
3598 82 -81 0
-3599 -82 0
-3599 83 0
3599 82 -83 0
-3600 -82 0
-3600 84 0
3600 82 -84 0
-3601 -82 0
-3601 85 0
3601 82 -85 0
-3602 -82 0
-3602 86 0
3602 82 -86 0
-3603 -93 0
-3603 -5 0
3603 93 5 0
-3604 -93 0
-3604 -20 0
3604 93 20 0
-3605 -93 0
-3605 -35 0
3605 93 35 0
-3606 -93 0
-3606 -49 0
3606 93 49 0
-3607 -93 0
-3607 -62 0
3607 93 62 0
-3608 -93 0
-3608 87 0
3608 93 -87 0
-3609 -93 0
-3609 88 0
3609 93 -88 0
-3610 -93 0
-3610 89 0
3610 93 -89 0
-3611 -93 0
-3611 90 0
3611 93 -90 0
-3612 -93 0
-3612 91 0
3612 93 -91 0
-3613 -93 0
-3613 92 0
3613 93 -92 0
-3614 -93 0
-3614 94 0
3614 93 -94 0
-3615 -93 0
-3615 95 0
3615 93 -95 0
-3616 -93 0
-3616 96 0
3616 93 -96 0
-3617 -93 0
-3617 97 0
3617 93 -97 0
-3618 -103 0
-3618 -6 0
3618 103 6 0
-3619 -103 0
-3619 -21 0
3619 103 21 0
-3620 -103 0
-3620 -36 0
3620 103 36 0
-3621 -103 0
-3621 -50 0
3621 103 50 0
-3622 -103 0
-3622 -63 0
3622 103 63 0
-3623 -103 0
-3623 -75 0
3623 103 75 0
-3624 -103 0
-3624 98 0
3624 103 -98 0
-3625 -103 0
-3625 99 0
3625 103 -99 0
-3626 -103 0
-3626 100 0
3626 103 -100 0
-3627 -103 0
-3627 101 0
3627 103 -101 0
-3628 -103 0
-3628 102 0
3628 103 -102 0
-3629 -103 0
-3629 104 0
3629 103 -104 0
-3630 -103 0
-3630 105 0
3630 103 -105 0
-3631 -103 0
-3631 106 0
3631 103 -106 0
-3632 -103 0
-3632 107 0
3632 103 -107 0
-3633 -112 0
-3633 -7 0
3633 112 7 0
-3634 -112 0
-3634 -22 0
3634 112 22 0
-3635 -112 0
-3635 -37 0
3635 112 37 0
-3636 -112 0
-3636 -51 0
3636 112 51 0
-3637 -112 0
-3637 -64 0
3637 112 64 0
-3638 -112 0
-3638 -76 0
3638 112 76 0
-3639 -112 0
-3639 -87 0
3639 112 87 0
-3640 -112 0
-3640 108 0
3640 112 -108 0
-3641 -112 0
-3641 109 0
3641 112 -109 0
-3642 -112 0
-3642 110 0
3642 112 -110 0
-3643 -112 0
-3643 111 0
3643 112 -111 0
-3644 -112 0
-3644 113 0
3644 112 -113 0
-3645 -112 0
-3645 114 0
3645 112 -114 0
-3646 -112 0
-3646 115 0
3646 112 -115 0
-3647 -112 0
-3647 116 0
3647 112 -116 0
-3648 -120 0
-3648 -8 0
3648 120 8 0
-3649 -120 0
-3649 -23 0
3649 120 23 0
-3650 -120 0
-3650 -38 0
3650 120 38 0
-3651 -120 0
-3651 -52 0
3651 120 52 0
-3652 -120 0
-3652 -65 0
3652 120 65 0
-3653 -120 0
-3653 -77 0
3653 120 77 0
-3654 -120 0
-3654 -88 0
3654 120 88 0
-3655 -120 0
-3655 -98 0
3655 120 98 0
-3656 -120 0
-3656 117 0
3656 120 -117 0
-3657 -120 0
-3657 118 0
3657 120 -118 0
-3658 -120 0
-3658 119 0
3658 120 -119 0
-3659 -120 0
-3659 121 0
3659 120 -121 0
-3660 -120 0
-3660 122 0
3660 120 -122 0
-3661 -120 0
-3661 123 0
3661 120 -123 0
-3662 -120 0
-3662 124 0
3662 120 -124 0
-3663 -127 0
-3663 -9 0
3663 127 9 0
-3664 -127 0
-3664 -24 0
3664 127 24 0
-3665 -127 0
-3665 -39 0
3665 127 39 0
-3666 -127 0
-3666 -53 0
3666 127 53 0
-3667 -127 0
-3667 -66 0
3667 127 66 0
-3668 -127 0
-3668 -78 0
3668 127 78 0
-3669 -127 0
-3669 -89 0
3669 127 89 0
-3670 -127 0
-3670 -99 0
3670 127 99 0
-3671 -127 0
-3671 -108 0
3671 127 108 0
-3672 -127 0
-3672 125 0
3672 127 -125 0
-3673 -127 0
-3673 126 0
3673 127 -126 0
-3674 -127 0
-3674 128 0
3674 127 -128 0
-3675 -127 0
-3675 129 0
3675 127 -129 0
-3676 -127 0
-3676 130 0
3676 127 -130 0
-3677 -127 0
-3677 131 0
3677 127 -131 0
-3678 -133 0
-3678 -10 0
3678 133 10 0
-3679 -133 0
-3679 -25 0
3679 133 25 0
-3680 -133 0
-3680 -40 0
3680 133 40 0
-3681 -133 0
-3681 -54 0
3681 133 54 0
-3682 -133 0
-3682 -67 0
3682 133 67 0
-3683 -133 0
-3683 -79 0
3683 133 79 0
-3684 -133 0
-3684 -90 0
3684 133 90 0
-3685 -133 0
-3685 -100 0
3685 133 100 0
-3686 -133 0
-3686 -109 0
3686 133 109 0
-3687 -133 0
-3687 -117 0
3687 133 117 0
-3688 -133 0
-3688 132 0
3688 133 -132 0
-3689 -133 0
-3689 134 0
3689 133 -134 0
-3690 -133 0
-3690 135 0
3690 133 -135 0
-3691 -133 0
-3691 136 0
3691 133 -136 0
-3692 -133 0
-3692 137 0
3692 133 -137 0
-3693 -138 0
-3693 -11 0
3693 138 11 0
-3694 -138 0
-3694 -26 0
3694 138 26 0
-3695 -138 0
-3695 -41 0
3695 138 41 0
-3696 -138 0
-3696 -55 0
3696 138 55 0
-3697 -138 0
-3697 -68 0
3697 138 68 0
-3698 -138 0
-3698 -80 0
3698 138 80 0
-3699 -138 0
-3699 -91 0
3699 138 91 0
-3700 -138 0
-3700 -101 0
3700 138 101 0
-3701 -138 0
-3701 -110 0
3701 138 110 0
-3702 -138 0
-3702 -118 0
3702 138 118 0
-3703 -138 0
-3703 -125 0
3703 138 125 0
-3704 -138 0
-3704 139 0
3704 138 -139 0
-3705 -138 0
-3705 140 0
3705 138 -140 0
-3706 -138 0
-3706 141 0
3706 138 -141 0
-3707 -138 0
-3707 142 0
3707 138 -142 0
-3708 147 0
-3708 -15 0
3708 -147 15 0
-3709 147 0
-3709 -30 0
3709 -147 30 0
-3710 147 0
-3710 -45 0
3710 -147 45 0
-3711 147 0
-3711 -59 0
3711 -147 59 0
-3712 147 0
-3712 -72 0
3712 -147 72 0
-3713 147 0
-3713 -84 0
3713 -147 84 0
-3714 147 0
-3714 -95 0
3714 -147 95 0
-3715 147 0
-3715 -105 0
3715 -147 105 0
-3716 147 0
-3716 -114 0
3716 -147 114 0
-3717 147 0
-3717 -122 0
3717 -147 122 0
-3718 147 0
-3718 -129 0
3718 -147 129 0
-3719 147 0
-3719 -135 0
3719 -147 135 0
-3720 147 0
-3720 -140 0
3720 -147 140 0
-3721 147 0
-3721 -144 0
3721 -147 144 0
-3722 147 0
-3722 152 0
3722 -147 -152 0
-3723 148 0
-3723 -16 0
3723 -148 16 0
-3724 148 0
-3724 -31 0
3724 -148 31 0
-3725 148 0
-3725 -46 0
3725 -148 46 0
-3726 148 0
-3726 -60 0
3726 -148 60 0
-3727 148 0
-3727 -73 0
3727 -148 73 0
-3728 148 0
-3728 -85 0
3728 -148 85 0
-3729 148 0
-3729 -96 0
3729 -148 96 0
-3730 148 0
-3730 -106 0
3730 -148 106 0
-3731 148 0
-3731 -115 0
3731 -148 115 0
-3732 148 0
-3732 -123 0
3732 -148 123 0
-3733 148 0
-3733 -130 0
3733 -148 130 0
-3734 148 0
-3734 -136 0
3734 -148 136 0
-3735 148 0
-3735 -141 0
3735 -148 141 0
-3736 148 0
-3736 -145 0
3736 -148 145 0
-3737 148 0
-3737 -150 0
3737 -148 150 0
-3738 149 0
-3738 -32 0
3738 -149 32 0
-3739 149 0
-3739 -47 0
3739 -149 47 0
-3740 149 0
-3740 -61 0
3740 -149 61 0
-3741 149 0
-3741 -74 0
3741 -149 74 0
-3742 149 0
-3742 -86 0
3742 -149 86 0
-3743 149 0
-3743 -97 0
3743 -149 97 0
-3744 149 0
-3744 -107 0
3744 -149 107 0
-3745 149 0
-3745 -116 0
3745 -149 116 0
-3746 149 0
-3746 -124 0
3746 -149 124 0
-3747 149 0
-3747 -131 0
3747 -149 131 0
-3748 149 0
-3748 -137 0
3748 -149 137 0
-3749 149 0
-3749 -142 0
3749 -149 142 0
-3750 149 0
-3750 -146 0
3750 -149 146 0
-3751 149 0
-3751 -151 0
3751 -149 151 0
-3752 149 0
-3752 -152 0
3752 -149 152 0
-3753 -14 0
-3753 1 0
3753 14 -1 0
-3754 -14 0
-3754 2 0
3754 14 -2 0
-3755 -14 0
-3755 3 0
3755 14 -3 0
-3756 -14 0
-3756 4 0
3756 14 -4 0
-3757 -14 0
-3757 5 0
3757 14 -5 0
-3758 -14 0
-3758 6 0
3758 14 -6 0
-3759 -14 0
-3759 7 0
3759 14 -7 0
-3760 -14 0
-3760 8 0
3760 14 -8 0
-3761 -14 0
-3761 9 0
3761 14 -9 0
-3762 -14 0
-3762 10 0
3762 14 -10 0
-3763 -14 0
-3763 11 0
3763 14 -11 0
-3764 -14 0
-3764 12 0
3764 14 -12 0
-3765 -14 0
-3765 13 0
3765 14 -13 0
-3766 -14 0
-3766 15 0
3766 14 -15 0
-3767 -14 0
-3767 16 0
3767 14 -16 0
-3768 -29 0
-3768 17 0
3768 29 -17 0
-3769 -29 0
-3769 18 0
3769 29 -18 0
-3770 -29 0
-3770 19 0
3770 29 -19 0
-3771 -29 0
-3771 20 0
3771 29 -20 0
-3772 -29 0
-3772 21 0
3772 29 -21 0
-3773 -29 0
-3773 22 0
3773 29 -22 0
-3774 -29 0
-3774 23 0
3774 29 -23 0
-3775 -29 0
-3775 24 0
3775 29 -24 0
-3776 -29 0
-3776 25 0
3776 29 -25 0
-3777 -29 0
-3777 26 0
3777 29 -26 0
-3778 -29 0
-3778 27 0
3778 29 -27 0
-3779 -29 0
-3779 28 0
3779 29 -28 0
-3780 -29 0
-3780 30 0
3780 29 -30 0
-3781 -29 0
-3781 31 0
3781 29 -31 0
-3782 -29 0
-3782 32 0
3782 29 -32 0
-3783 -44 0
-3783 -1 0
3783 44 1 0
-3784 -44 0
-3784 33 0
3784 44 -33 0
-3785 -44 0
-3785 34 0
3785 44 -34 0
-3786 -44 0
-3786 35 0
3786 44 -35 0
-3787 -44 0
-3787 36 0
3787 44 -36 0
-3788 -44 0
-3788 37 0
3788 44 -37 0
-3789 -44 0
-3789 38 0
3789 44 -38 0
-3790 -44 0
-3790 39 0
3790 44 -39 0
-3791 -44 0
-3791 40 0
3791 44 -40 0
-3792 -44 0
-3792 41 0
3792 44 -41 0
-3793 -44 0
-3793 42 0
3793 44 -42 0
-3794 -44 0
-3794 43 0
3794 44 -43 0
-3795 -44 0
-3795 45 0
3795 44 -45 0
-3796 -44 0
-3796 46 0
3796 44 -46 0
-3797 -44 0
-3797 47 0
3797 44 -47 0
-3798 -58 0
-3798 -2 0
3798 58 2 0
-3799 -58 0
-3799 -17 0
3799 58 17 0
-3800 -58 0
-3800 48 0
3800 58 -48 0
-3801 -58 0
-3801 49 0
3801 58 -49 0
-3802 -58 0
-3802 50 0
3802 58 -50 0
-3803 -58 0
-3803 51 0
3803 58 -51 0
-3804 -58 0
-3804 52 0
3804 58 -52 0
-3805 -58 0
-3805 53 0
3805 58 -53 0
-3806 -58 0
-3806 54 0
3806 58 -54 0
-3807 -58 0
-3807 55 0
3807 58 -55 0
-3808 -58 0
-3808 56 0
3808 58 -56 0
-3809 -58 0
-3809 57 0
3809 58 -57 0
-3810 -58 0
-3810 59 0
3810 58 -59 0
-3811 -58 0
-3811 60 0
3811 58 -60 0
-3812 -58 0
-3812 61 0
3812 58 -61 0
-3813 -71 0
-3813 -3 0
3813 71 3 0
-3814 -71 0
-3814 -18 0
3814 71 18 0
-3815 -71 0
-3815 -33 0
3815 71 33 0
-3816 -71 0
-3816 62 0
3816 71 -62 0
-3817 -71 0
-3817 63 0
3817 71 -63 0
-3818 -71 0
-3818 64 0
3818 71 -64 0
-3819 -71 0
-3819 65 0
3819 71 -65 0
-3820 -71 0
-3820 66 0
3820 71 -66 0
-3821 -71 0
-3821 67 0
3821 71 -67 0
-3822 -71 0
-3822 68 0
3822 71 -68 0
-3823 -71 0
-3823 69 0
3823 71 -69 0
-3824 -71 0
-3824 70 0
3824 71 -70 0
-3825 -71 0
-3825 72 0
3825 71 -72 0
-3826 -71 0
-3826 73 0
3826 71 -73 0
-3827 -71 0
-3827 74 0
3827 71 -74 0
-3828 -83 0
-3828 -4 0
3828 83 4 0
-3829 -83 0
-3829 -19 0
3829 83 19 0
-3830 -83 0
-3830 -34 0
3830 83 34 0
-3831 -83 0
-3831 -48 0
3831 83 48 0
-3832 -83 0
-3832 75 0
3832 83 -75 0
-3833 -83 0
-3833 76 0
3833 83 -76 0
-3834 -83 0
-3834 77 0
3834 83 -77 0
-3835 -83 0
-3835 78 0
3835 83 -78 0
-3836 -83 0
-3836 79 0
3836 83 -79 0
-3837 -83 0
-3837 80 0
3837 83 -80 0
-3838 -83 0
-3838 81 0
3838 83 -81 0
-3839 -83 0
-3839 82 0
3839 83 -82 0
-3840 -83 0
-3840 84 0
3840 83 -84 0
-3841 -83 0
-3841 85 0
3841 83 -85 0
-3842 -83 0
-3842 86 0
3842 83 -86 0
-3843 -94 0
-3843 -5 0
3843 94 5 0
-3844 -94 0
-3844 -20 0
3844 94 20 0
-3845 -94 0
-3845 -35 0
3845 94 35 0
-3846 -94 0
-3846 -49 0
3846 94 49 0
-3847 -94 0
-3847 -62 0
3847 94 62 0
-3848 -94 0
-3848 87 0
3848 94 -87 0
-3849 -94 0
-3849 88 0
3849 94 -88 0
-3850 -94 0
-3850 89 0
3850 94 -89 0
-3851 -94 0
-3851 90 0
3851 94 -90 0
-3852 -94 0
-3852 91 0
3852 94 -91 0
-3853 -94 0
-3853 92 0
3853 94 -92 0
-3854 -94 0
-3854 93 0
3854 94 -93 0
-3855 -94 0
-3855 95 0
3855 94 -95 0
-3856 -94 0
-3856 96 0
3856 94 -96 0
-3857 -94 0
-3857 97 0
3857 94 -97 0
-3858 -104 0
-3858 -6 0
3858 104 6 0
-3859 -104 0
-3859 -21 0
3859 104 21 0
-3860 -104 0
-3860 -36 0
3860 104 36 0
-3861 -104 0
-3861 -50 0
3861 104 50 0
-3862 -104 0
-3862 -63 0
3862 104 63 0
-3863 -104 0
-3863 -75 0
3863 104 75 0
-3864 -104 0
-3864 98 0
3864 104 -98 0
-3865 -104 0
-3865 99 0
3865 104 -99 0
-3866 -104 0
-3866 100 0
3866 104 -100 0
-3867 -104 0
-3867 101 0
3867 104 -101 0
-3868 -104 0
-3868 102 0
3868 104 -102 0
-3869 -104 0
-3869 103 0
3869 104 -103 0
-3870 -104 0
-3870 105 0
3870 104 -105 0
-3871 -104 0
-3871 106 0
3871 104 -106 0
-3872 -104 0
-3872 107 0
3872 104 -107 0
-3873 -113 0
-3873 -7 0
3873 113 7 0
-3874 -113 0
-3874 -22 0
3874 113 22 0
-3875 -113 0
-3875 -37 0
3875 113 37 0
-3876 -113 0
-3876 -51 0
3876 113 51 0
-3877 -113 0
-3877 -64 0
3877 113 64 0
-3878 -113 0
-3878 -76 0
3878 113 76 0
-3879 -113 0
-3879 -87 0
3879 113 87 0
-3880 -113 0
-3880 108 0
3880 113 -108 0
-3881 -113 0
-3881 109 0
3881 113 -109 0
-3882 -113 0
-3882 110 0
3882 113 -110 0
-3883 -113 0
-3883 111 0
3883 113 -111 0
-3884 -113 0
-3884 112 0
3884 113 -112 0
-3885 -113 0
-3885 114 0
3885 113 -114 0
-3886 -113 0
-3886 115 0
3886 113 -115 0
-3887 -113 0
-3887 116 0
3887 113 -116 0
-3888 -121 0
-3888 -8 0
3888 121 8 0
-3889 -121 0
-3889 -23 0
3889 121 23 0
-3890 -121 0
-3890 -38 0
3890 121 38 0
-3891 -121 0
-3891 -52 0
3891 121 52 0
-3892 -121 0
-3892 -65 0
3892 121 65 0
-3893 -121 0
-3893 -77 0
3893 121 77 0
-3894 -121 0
-3894 -88 0
3894 121 88 0
-3895 -121 0
-3895 -98 0
3895 121 98 0
-3896 -121 0
-3896 117 0
3896 121 -117 0
-3897 -121 0
-3897 118 0
3897 121 -118 0
-3898 -121 0
-3898 119 0
3898 121 -119 0
-3899 -121 0
-3899 120 0
3899 121 -120 0
-3900 -121 0
-3900 122 0
3900 121 -122 0
-3901 -121 0
-3901 123 0
3901 121 -123 0
-3902 -121 0
-3902 124 0
3902 121 -124 0
-3903 -128 0
-3903 -9 0
3903 128 9 0
-3904 -128 0
-3904 -24 0
3904 128 24 0
-3905 -128 0
-3905 -39 0
3905 128 39 0
-3906 -128 0
-3906 -53 0
3906 128 53 0
-3907 -128 0
-3907 -66 0
3907 128 66 0
-3908 -128 0
-3908 -78 0
3908 128 78 0
-3909 -128 0
-3909 -89 0
3909 128 89 0
-3910 -128 0
-3910 -99 0
3910 128 99 0
-3911 -128 0
-3911 -108 0
3911 128 108 0
-3912 -128 0
-3912 125 0
3912 128 -125 0
-3913 -128 0
-3913 126 0
3913 128 -126 0
-3914 -128 0
-3914 127 0
3914 128 -127 0
-3915 -128 0
-3915 129 0
3915 128 -129 0
-3916 -128 0
-3916 130 0
3916 128 -130 0
-3917 -128 0
-3917 131 0
3917 128 -131 0
-3918 -134 0
-3918 -10 0
3918 134 10 0
-3919 -134 0
-3919 -25 0
3919 134 25 0
-3920 -134 0
-3920 -40 0
3920 134 40 0
-3921 -134 0
-3921 -54 0
3921 134 54 0
-3922 -134 0
-3922 -67 0
3922 134 67 0
-3923 -134 0
-3923 -79 0
3923 134 79 0
-3924 -134 0
-3924 -90 0
3924 134 90 0
-3925 -134 0
-3925 -100 0
3925 134 100 0
-3926 -134 0
-3926 -109 0
3926 134 109 0
-3927 -134 0
-3927 -117 0
3927 134 117 0
-3928 -134 0
-3928 132 0
3928 134 -132 0
-3929 -134 0
-3929 133 0
3929 134 -133 0
-3930 -134 0
-3930 135 0
3930 134 -135 0
-3931 -134 0
-3931 136 0
3931 134 -136 0
-3932 -134 0
-3932 137 0
3932 134 -137 0
-3933 -139 0
-3933 -11 0
3933 139 11 0
-3934 -139 0
-3934 -26 0
3934 139 26 0
-3935 -139 0
-3935 -41 0
3935 139 41 0
-3936 -139 0
-3936 -55 0
3936 139 55 0
-3937 -139 0
-3937 -68 0
3937 139 68 0
-3938 -139 0
-3938 -80 0
3938 139 80 0
-3939 -139 0
-3939 -91 0
3939 139 91 0
-3940 -139 0
-3940 -101 0
3940 139 101 0
-3941 -139 0
-3941 -110 0
3941 139 110 0
-3942 -139 0
-3942 -118 0
3942 139 118 0
-3943 -139 0
-3943 -125 0
3943 139 125 0
-3944 -139 0
-3944 138 0
3944 139 -138 0
-3945 -139 0
-3945 140 0
3945 139 -140 0
-3946 -139 0
-3946 141 0
3946 139 -141 0
-3947 -139 0
-3947 142 0
3947 139 -142 0
-3948 -143 0
-3948 -12 0
3948 143 12 0
-3949 -143 0
-3949 -27 0
3949 143 27 0
-3950 -143 0
-3950 -42 0
3950 143 42 0
-3951 -143 0
-3951 -56 0
3951 143 56 0
-3952 -143 0
-3952 -69 0
3952 143 69 0
-3953 -143 0
-3953 -81 0
3953 143 81 0
-3954 -143 0
-3954 -92 0
3954 143 92 0
-3955 -143 0
-3955 -102 0
3955 143 102 0
-3956 -143 0
-3956 -111 0
3956 143 111 0
-3957 -143 0
-3957 -119 0
3957 143 119 0
-3958 -143 0
-3958 -126 0
3958 143 126 0
-3959 -143 0
-3959 -132 0
3959 143 132 0
-3960 -143 0
-3960 144 0
3960 143 -144 0
-3961 -143 0
-3961 145 0
3961 143 -145 0
-3962 -143 0
-3962 146 0
3962 143 -146 0
-3963 150 0
-3963 -16 0
3963 -150 16 0
-3964 150 0
-3964 -31 0
3964 -150 31 0
-3965 150 0
-3965 -46 0
3965 -150 46 0
-3966 150 0
-3966 -60 0
3966 -150 60 0
-3967 150 0
-3967 -73 0
3967 -150 73 0
-3968 150 0
-3968 -85 0
3968 -150 85 0
-3969 150 0
-3969 -96 0
3969 -150 96 0
-3970 150 0
-3970 -106 0
3970 -150 106 0
-3971 150 0
-3971 -115 0
3971 -150 115 0
-3972 150 0
-3972 -123 0
3972 -150 123 0
-3973 150 0
-3973 -130 0
3973 -150 130 0
-3974 150 0
-3974 -136 0
3974 -150 136 0
-3975 150 0
-3975 -141 0
3975 -150 141 0
-3976 150 0
-3976 -145 0
3976 -150 145 0
-3977 150 0
-3977 -148 0
3977 -150 148 0
-3978 151 0
-3978 -32 0
3978 -151 32 0
-3979 151 0
-3979 -47 0
3979 -151 47 0
-3980 151 0
-3980 -61 0
3980 -151 61 0
-3981 151 0
-3981 -74 0
3981 -151 74 0
-3982 151 0
-3982 -86 0
3982 -151 86 0
-3983 151 0
-3983 -97 0
3983 -151 97 0
-3984 151 0
-3984 -107 0
3984 -151 107 0
-3985 151 0
-3985 -116 0
3985 -151 116 0
-3986 151 0
-3986 -124 0
3986 -151 124 0
-3987 151 0
-3987 -131 0
3987 -151 131 0
-3988 151 0
-3988 -137 0
3988 -151 137 0
-3989 151 0
-3989 -142 0
3989 -151 142 0
-3990 151 0
-3990 -146 0
3990 -151 146 0
-3991 151 0
-3991 -149 0
3991 -151 149 0
-3992 151 0
-3992 -152 0
3992 -151 152 0
-3993 -15 0
-3993 1 0
3993 15 -1 0
-3994 -15 0
-3994 2 0
3994 15 -2 0
-3995 -15 0
-3995 3 0
3995 15 -3 0
-3996 -15 0
-3996 4 0
3996 15 -4 0
-3997 -15 0
-3997 5 0
3997 15 -5 0
-3998 -15 0
-3998 6 0
3998 15 -6 0
-3999 -15 0
-3999 7 0
3999 15 -7 0
-4000 -15 0
-4000 8 0
4000 15 -8 0
-4001 -15 0
-4001 9 0
4001 15 -9 0
-4002 -15 0
-4002 10 0
4002 15 -10 0
-4003 -15 0
-4003 11 0
4003 15 -11 0
-4004 -15 0
-4004 12 0
4004 15 -12 0
-4005 -15 0
-4005 13 0
4005 15 -13 0
-4006 -15 0
-4006 14 0
4006 15 -14 0
-4007 -15 0
-4007 16 0
4007 15 -16 0
-4008 -30 0
-4008 17 0
4008 30 -17 0
-4009 -30 0
-4009 18 0
4009 30 -18 0
-4010 -30 0
-4010 19 0
4010 30 -19 0
-4011 -30 0
-4011 20 0
4011 30 -20 0
-4012 -30 0
-4012 21 0
4012 30 -21 0
-4013 -30 0
-4013 22 0
4013 30 -22 0
-4014 -30 0
-4014 23 0
4014 30 -23 0
-4015 -30 0
-4015 24 0
4015 30 -24 0
-4016 -30 0
-4016 25 0
4016 30 -25 0
-4017 -30 0
-4017 26 0
4017 30 -26 0
-4018 -30 0
-4018 27 0
4018 30 -27 0
-4019 -30 0
-4019 28 0
4019 30 -28 0
-4020 -30 0
-4020 29 0
4020 30 -29 0
-4021 -30 0
-4021 31 0
4021 30 -31 0
-4022 -30 0
-4022 32 0
4022 30 -32 0
-4023 -45 0
-4023 -1 0
4023 45 1 0
-4024 -45 0
-4024 33 0
4024 45 -33 0
-4025 -45 0
-4025 34 0
4025 45 -34 0
-4026 -45 0
-4026 35 0
4026 45 -35 0
-4027 -45 0
-4027 36 0
4027 45 -36 0
-4028 -45 0
-4028 37 0
4028 45 -37 0
-4029 -45 0
-4029 38 0
4029 45 -38 0
-4030 -45 0
-4030 39 0
4030 45 -39 0
-4031 -45 0
-4031 40 0
4031 45 -40 0
-4032 -45 0
-4032 41 0
4032 45 -41 0
-4033 -45 0
-4033 42 0
4033 45 -42 0
-4034 -45 0
-4034 43 0
4034 45 -43 0
-4035 -45 0
-4035 44 0
4035 45 -44 0
-4036 -45 0
-4036 46 0
4036 45 -46 0
-4037 -45 0
-4037 47 0
4037 45 -47 0
-4038 -59 0
-4038 -2 0
4038 59 2 0
-4039 -59 0
-4039 -17 0
4039 59 17 0
-4040 -59 0
-4040 48 0
4040 59 -48 0
-4041 -59 0
-4041 49 0
4041 59 -49 0
-4042 -59 0
-4042 50 0
4042 59 -50 0
-4043 -59 0
-4043 51 0
4043 59 -51 0
-4044 -59 0
-4044 52 0
4044 59 -52 0
-4045 -59 0
-4045 53 0
4045 59 -53 0
-4046 -59 0
-4046 54 0
4046 59 -54 0
-4047 -59 0
-4047 55 0
4047 59 -55 0
-4048 -59 0
-4048 56 0
4048 59 -56 0
-4049 -59 0
-4049 57 0
4049 59 -57 0
-4050 -59 0
-4050 58 0
4050 59 -58 0
-4051 -59 0
-4051 60 0
4051 59 -60 0
-4052 -59 0
-4052 61 0
4052 59 -61 0
-4053 -72 0
-4053 -3 0
4053 72 3 0
-4054 -72 0
-4054 -18 0
4054 72 18 0
-4055 -72 0
-4055 -33 0
4055 72 33 0
-4056 -72 0
-4056 62 0
4056 72 -62 0
-4057 -72 0
-4057 63 0
4057 72 -63 0
-4058 -72 0
-4058 64 0
4058 72 -64 0
-4059 -72 0
-4059 65 0
4059 72 -65 0
-4060 -72 0
-4060 66 0
4060 72 -66 0
-4061 -72 0
-4061 67 0
4061 72 -67 0
-4062 -72 0
-4062 68 0
4062 72 -68 0
-4063 -72 0
-4063 69 0
4063 72 -69 0
-4064 -72 0
-4064 70 0
4064 72 -70 0
-4065 -72 0
-4065 71 0
4065 72 -71 0
-4066 -72 0
-4066 73 0
4066 72 -73 0
-4067 -72 0
-4067 74 0
4067 72 -74 0
-4068 -84 0
-4068 -4 0
4068 84 4 0
-4069 -84 0
-4069 -19 0
4069 84 19 0
-4070 -84 0
-4070 -34 0
4070 84 34 0
-4071 -84 0
-4071 -48 0
4071 84 48 0
-4072 -84 0
-4072 75 0
4072 84 -75 0
-4073 -84 0
-4073 76 0
4073 84 -76 0
-4074 -84 0
-4074 77 0
4074 84 -77 0
-4075 -84 0
-4075 78 0
4075 84 -78 0
-4076 -84 0
-4076 79 0
4076 84 -79 0
-4077 -84 0
-4077 80 0
4077 84 -80 0
-4078 -84 0
-4078 81 0
4078 84 -81 0
-4079 -84 0
-4079 82 0
4079 84 -82 0
-4080 -84 0
-4080 83 0
4080 84 -83 0
-4081 -84 0
-4081 85 0
4081 84 -85 0
-4082 -84 0
-4082 86 0
4082 84 -86 0
-4083 -95 0
-4083 -5 0
4083 95 5 0
-4084 -95 0
-4084 -20 0
4084 95 20 0
-4085 -95 0
-4085 -35 0
4085 95 35 0
-4086 -95 0
-4086 -49 0
4086 95 49 0
-4087 -95 0
-4087 -62 0
4087 95 62 0
-4088 -95 0
-4088 87 0
4088 95 -87 0
-4089 -95 0
-4089 88 0
4089 95 -88 0
-4090 -95 0
-4090 89 0
4090 95 -89 0
-4091 -95 0
-4091 90 0
4091 95 -90 0
-4092 -95 0
-4092 91 0
4092 95 -91 0
-4093 -95 0
-4093 92 0
4093 95 -92 0
-4094 -95 0
-4094 93 0
4094 95 -93 0
-4095 -95 0
-4095 94 0
4095 95 -94 0
-4096 -95 0
-4096 96 0
4096 95 -96 0
-4097 -95 0
-4097 97 0
4097 95 -97 0
-4098 -105 0
-4098 -6 0
4098 105 6 0
-4099 -105 0
-4099 -21 0
4099 105 21 0
-4100 -105 0
-4100 -36 0
4100 105 36 0
-4101 -105 0
-4101 -50 0
4101 105 50 0
-4102 -105 0
-4102 -63 0
4102 105 63 0
-4103 -105 0
-4103 -75 0
4103 105 75 0
-4104 -105 0
-4104 98 0
4104 105 -98 0
-4105 -105 0
-4105 99 0
4105 105 -99 0
-4106 -105 0
-4106 100 0
4106 105 -100 0
-4107 -105 0
-4107 101 0
4107 105 -101 0
-4108 -105 0
-4108 102 0
4108 105 -102 0
-4109 -105 0
-4109 103 0
4109 105 -103 0
-4110 -105 0
-4110 104 0
4110 105 -104 0
-4111 -105 0
-4111 106 0
4111 105 -106 0
-4112 -105 0
-4112 107 0
4112 105 -107 0
-4113 -114 0
-4113 -7 0
4113 114 7 0
-4114 -114 0
-4114 -22 0
4114 114 22 0
-4115 -114 0
-4115 -37 0
4115 114 37 0
-4116 -114 0
-4116 -51 0
4116 114 51 0
-4117 -114 0
-4117 -64 0
4117 114 64 0
-4118 -114 0
-4118 -76 0
4118 114 76 0
-4119 -114 0
-4119 -87 0
4119 114 87 0
-4120 -114 0
-4120 108 0
4120 114 -108 0
-4121 -114 0
-4121 109 0
4121 114 -109 0
-4122 -114 0
-4122 110 0
4122 114 -110 0
-4123 -114 0
-4123 111 0
4123 114 -111 0
-4124 -114 0
-4124 112 0
4124 114 -112 0
-4125 -114 0
-4125 113 0
4125 114 -113 0
-4126 -114 0
-4126 115 0
4126 114 -115 0
-4127 -114 0
-4127 116 0
4127 114 -116 0
-4128 -122 0
-4128 -8 0
4128 122 8 0
-4129 -122 0
-4129 -23 0
4129 122 23 0
-4130 -122 0
-4130 -38 0
4130 122 38 0
-4131 -122 0
-4131 -52 0
4131 122 52 0
-4132 -122 0
-4132 -65 0
4132 122 65 0
-4133 -122 0
-4133 -77 0
4133 122 77 0
-4134 -122 0
-4134 -88 0
4134 122 88 0
-4135 -122 0
-4135 -98 0
4135 122 98 0
-4136 -122 0
-4136 117 0
4136 122 -117 0
-4137 -122 0
-4137 118 0
4137 122 -118 0
-4138 -122 0
-4138 119 0
4138 122 -119 0
-4139 -122 0
-4139 120 0
4139 122 -120 0
-4140 -122 0
-4140 121 0
4140 122 -121 0
-4141 -122 0
-4141 123 0
4141 122 -123 0
-4142 -122 0
-4142 124 0
4142 122 -124 0
-4143 -129 0
-4143 -9 0
4143 129 9 0
-4144 -129 0
-4144 -24 0
4144 129 24 0
-4145 -129 0
-4145 -39 0
4145 129 39 0
-4146 -129 0
-4146 -53 0
4146 129 53 0
-4147 -129 0
-4147 -66 0
4147 129 66 0
-4148 -129 0
-4148 -78 0
4148 129 78 0
-4149 -129 0
-4149 -89 0
4149 129 89 0
-4150 -129 0
-4150 -99 0
4150 129 99 0
-4151 -129 0
-4151 -108 0
4151 129 108 0
-4152 -129 0
-4152 125 0
4152 129 -125 0
-4153 -129 0
-4153 126 0
4153 129 -126 0
-4154 -129 0
-4154 127 0
4154 129 -127 0
-4155 -129 0
-4155 128 0
4155 129 -128 0
-4156 -129 0
-4156 130 0
4156 129 -130 0
-4157 -129 0
-4157 131 0
4157 129 -131 0
-4158 -135 0
-4158 -10 0
4158 135 10 0
-4159 -135 0
-4159 -25 0
4159 135 25 0
-4160 -135 0
-4160 -40 0
4160 135 40 0
-4161 -135 0
-4161 -54 0
4161 135 54 0
-4162 -135 0
-4162 -67 0
4162 135 67 0
-4163 -135 0
-4163 -79 0
4163 135 79 0
-4164 -135 0
-4164 -90 0
4164 135 90 0
-4165 -135 0
-4165 -100 0
4165 135 100 0
-4166 -135 0
-4166 -109 0
4166 135 109 0
-4167 -135 0
-4167 -117 0
4167 135 117 0
-4168 -135 0
-4168 132 0
4168 135 -132 0
-4169 -135 0
-4169 133 0
4169 135 -133 0
-4170 -135 0
-4170 134 0
4170 135 -134 0
-4171 -135 0
-4171 136 0
4171 135 -136 0
-4172 -135 0
-4172 137 0
4172 135 -137 0
-4173 -140 0
-4173 -11 0
4173 140 11 0
-4174 -140 0
-4174 -26 0
4174 140 26 0
-4175 -140 0
-4175 -41 0
4175 140 41 0
-4176 -140 0
-4176 -55 0
4176 140 55 0
-4177 -140 0
-4177 -68 0
4177 140 68 0
-4178 -140 0
-4178 -80 0
4178 140 80 0
-4179 -140 0
-4179 -91 0
4179 140 91 0
-4180 -140 0
-4180 -101 0
4180 140 101 0
-4181 -140 0
-4181 -110 0
4181 140 110 0
-4182 -140 0
-4182 -118 0
4182 140 118 0
-4183 -140 0
-4183 -125 0
4183 140 125 0
-4184 -140 0
-4184 138 0
4184 140 -138 0
-4185 -140 0
-4185 139 0
4185 140 -139 0
-4186 -140 0
-4186 141 0
4186 140 -141 0
-4187 -140 0
-4187 142 0
4187 140 -142 0
-4188 -144 0
-4188 -12 0
4188 144 12 0
-4189 -144 0
-4189 -27 0
4189 144 27 0
-4190 -144 0
-4190 -42 0
4190 144 42 0
-4191 -144 0
-4191 -56 0
4191 144 56 0
-4192 -144 0
-4192 -69 0
4192 144 69 0
-4193 -144 0
-4193 -81 0
4193 144 81 0
-4194 -144 0
-4194 -92 0
4194 144 92 0
-4195 -144 0
-4195 -102 0
4195 144 102 0
-4196 -144 0
-4196 -111 0
4196 144 111 0
-4197 -144 0
-4197 -119 0
4197 144 119 0
-4198 -144 0
-4198 -126 0
4198 144 126 0
-4199 -144 0
-4199 -132 0
4199 144 132 0
-4200 -144 0
-4200 143 0
4200 144 -143 0
-4201 -144 0
-4201 145 0
4201 144 -145 0
-4202 -144 0
-4202 146 0
4202 144 -146 0
-4203 -147 0
-4203 -13 0
4203 147 13 0
-4204 -147 0
-4204 -28 0
4204 147 28 0
-4205 -147 0
-4205 -43 0
4205 147 43 0
-4206 -147 0
-4206 -57 0
4206 147 57 0
-4207 -147 0
-4207 -70 0
4207 147 70 0
-4208 -147 0
-4208 -82 0
4208 147 82 0
-4209 -147 0
-4209 -93 0
4209 147 93 0
-4210 -147 0
-4210 -103 0
4210 147 103 0
-4211 -147 0
-4211 -112 0
4211 147 112 0
-4212 -147 0
-4212 -120 0
4212 147 120 0
-4213 -147 0
-4213 -127 0
4213 147 127 0
-4214 -147 0
-4214 -133 0
4214 147 133 0
-4215 -147 0
-4215 -138 0
4215 147 138 0
-4216 -147 0
-4216 148 0
4216 147 -148 0
-4217 -147 0
-4217 149 0
4217 147 -149 0
-4218 152 0
-4218 -32 0
4218 -152 32 0
-4219 152 0
-4219 -47 0
4219 -152 47 0
-4220 152 0
-4220 -61 0
4220 -152 61 0
-4221 152 0
-4221 -74 0
4221 -152 74 0
-4222 152 0
-4222 -86 0
4222 -152 86 0
-4223 152 0
-4223 -97 0
4223 -152 97 0
-4224 152 0
-4224 -107 0
4224 -152 107 0
-4225 152 0
-4225 -116 0
4225 -152 116 0
-4226 152 0
-4226 -124 0
4226 -152 124 0
-4227 152 0
-4227 -131 0
4227 -152 131 0
-4228 152 0
-4228 -137 0
4228 -152 137 0
-4229 152 0
-4229 -142 0
4229 -152 142 0
-4230 152 0
-4230 -146 0
4230 -152 146 0
-4231 152 0
-4231 -149 0
4231 -152 149 0
-4232 152 0
-4232 -151 0
4232 -152 151 0
-4233 -16 0
-4233 1 0
4233 16 -1 0
-4234 -16 0
-4234 2 0
4234 16 -2 0
-4235 -16 0
-4235 3 0
4235 16 -3 0
-4236 -16 0
-4236 4 0
4236 16 -4 0
-4237 -16 0
-4237 5 0
4237 16 -5 0
-4238 -16 0
-4238 6 0
4238 16 -6 0
-4239 -16 0
-4239 7 0
4239 16 -7 0
-4240 -16 0
-4240 8 0
4240 16 -8 0
-4241 -16 0
-4241 9 0
4241 16 -9 0
-4242 -16 0
-4242 10 0
4242 16 -10 0
-4243 -16 0
-4243 11 0
4243 16 -11 0
-4244 -16 0
-4244 12 0
4244 16 -12 0
-4245 -16 0
-4245 13 0
4245 16 -13 0
-4246 -16 0
-4246 14 0
4246 16 -14 0
-4247 -16 0
-4247 15 0
4247 16 -15 0
-4248 -31 0
-4248 17 0
4248 31 -17 0
-4249 -31 0
-4249 18 0
4249 31 -18 0
-4250 -31 0
-4250 19 0
4250 31 -19 0
-4251 -31 0
-4251 20 0
4251 31 -20 0
-4252 -31 0
-4252 21 0
4252 31 -21 0
-4253 -31 0
-4253 22 0
4253 31 -22 0
-4254 -31 0
-4254 23 0
4254 31 -23 0
-4255 -31 0
-4255 24 0
4255 31 -24 0
-4256 -31 0
-4256 25 0
4256 31 -25 0
-4257 -31 0
-4257 26 0
4257 31 -26 0
-4258 -31 0
-4258 27 0
4258 31 -27 0
-4259 -31 0
-4259 28 0
4259 31 -28 0
-4260 -31 0
-4260 29 0
4260 31 -29 0
-4261 -31 0
-4261 30 0
4261 31 -30 0
-4262 -31 0
-4262 32 0
4262 31 -32 0
-4263 -46 0
-4263 -1 0
4263 46 1 0
-4264 -46 0
-4264 33 0
4264 46 -33 0
-4265 -46 0
-4265 34 0
4265 46 -34 0
-4266 -46 0
-4266 35 0
4266 46 -35 0
-4267 -46 0
-4267 36 0
4267 46 -36 0
-4268 -46 0
-4268 37 0
4268 46 -37 0
-4269 -46 0
-4269 38 0
4269 46 -38 0
-4270 -46 0
-4270 39 0
4270 46 -39 0
-4271 -46 0
-4271 40 0
4271 46 -40 0
-4272 -46 0
-4272 41 0
4272 46 -41 0
-4273 -46 0
-4273 42 0
4273 46 -42 0
-4274 -46 0
-4274 43 0
4274 46 -43 0
-4275 -46 0
-4275 44 0
4275 46 -44 0
-4276 -46 0
-4276 45 0
4276 46 -45 0
-4277 -46 0
-4277 47 0
4277 46 -47 0
-4278 -60 0
-4278 -2 0
4278 60 2 0
-4279 -60 0
-4279 -17 0
4279 60 17 0
-4280 -60 0
-4280 48 0
4280 60 -48 0
-4281 -60 0
-4281 49 0
4281 60 -49 0
-4282 -60 0
-4282 50 0
4282 60 -50 0
-4283 -60 0
-4283 51 0
4283 60 -51 0
-4284 -60 0
-4284 52 0
4284 60 -52 0
-4285 -60 0
-4285 53 0
4285 60 -53 0
-4286 -60 0
-4286 54 0
4286 60 -54 0
-4287 -60 0
-4287 55 0
4287 60 -55 0
-4288 -60 0
-4288 56 0
4288 60 -56 0
-4289 -60 0
-4289 57 0
4289 60 -57 0
-4290 -60 0
-4290 58 0
4290 60 -58 0
-4291 -60 0
-4291 59 0
4291 60 -59 0
-4292 -60 0
-4292 61 0
4292 60 -61 0
-4293 -73 0
-4293 -3 0
4293 73 3 0
-4294 -73 0
-4294 -18 0
4294 73 18 0
-4295 -73 0
-4295 -33 0
4295 73 33 0
-4296 -73 0
-4296 62 0
4296 73 -62 0
-4297 -73 0
-4297 63 0
4297 73 -63 0
-4298 -73 0
-4298 64 0
4298 73 -64 0
-4299 -73 0
-4299 65 0
4299 73 -65 0
-4300 -73 0
-4300 66 0
4300 73 -66 0
-4301 -73 0
-4301 67 0
4301 73 -67 0
-4302 -73 0
-4302 68 0
4302 73 -68 0
-4303 -73 0
-4303 69 0
4303 73 -69 0
-4304 -73 0
-4304 70 0
4304 73 -70 0
-4305 -73 0
-4305 71 0
4305 73 -71 0
-4306 -73 0
-4306 72 0
4306 73 -72 0
-4307 -73 0
-4307 74 0
4307 73 -74 0
-4308 -85 0
-4308 -4 0
4308 85 4 0
-4309 -85 0
-4309 -19 0
4309 85 19 0
-4310 -85 0
-4310 -34 0
4310 85 34 0
-4311 -85 0
-4311 -48 0
4311 85 48 0
-4312 -85 0
-4312 75 0
4312 85 -75 0
-4313 -85 0
-4313 76 0
4313 85 -76 0
-4314 -85 0
-4314 77 0
4314 85 -77 0
-4315 -85 0
-4315 78 0
4315 85 -78 0
-4316 -85 0
-4316 79 0
4316 85 -79 0
-4317 -85 0
-4317 80 0
4317 85 -80 0
-4318 -85 0
-4318 81 0
4318 85 -81 0
-4319 -85 0
-4319 82 0
4319 85 -82 0
-4320 -85 0
-4320 83 0
4320 85 -83 0
-4321 -85 0
-4321 84 0
4321 85 -84 0
-4322 -85 0
-4322 86 0
4322 85 -86 0
-4323 -96 0
-4323 -5 0
4323 96 5 0
-4324 -96 0
-4324 -20 0
4324 96 20 0
-4325 -96 0
-4325 -35 0
4325 96 35 0
-4326 -96 0
-4326 -49 0
4326 96 49 0
-4327 -96 0
-4327 -62 0
4327 96 62 0
-4328 -96 0
-4328 87 0
4328 96 -87 0
-4329 -96 0
-4329 88 0
4329 96 -88 0
-4330 -96 0
-4330 89 0
4330 96 -89 0
-4331 -96 0
-4331 90 0
4331 96 -90 0
-4332 -96 0
-4332 91 0
4332 96 -91 0
-4333 -96 0
-4333 92 0
4333 96 -92 0
-4334 -96 0
-4334 93 0
4334 96 -93 0
-4335 -96 0
-4335 94 0
4335 96 -94 0
-4336 -96 0
-4336 95 0
4336 96 -95 0
-4337 -96 0
-4337 97 0
4337 96 -97 0
-4338 -106 0
-4338 -6 0
4338 106 6 0
-4339 -106 0
-4339 -21 0
4339 106 21 0
-4340 -106 0
-4340 -36 0
4340 106 36 0
-4341 -106 0
-4341 -50 0
4341 106 50 0
-4342 -106 0
-4342 -63 0
4342 106 63 0
-4343 -106 0
-4343 -75 0
4343 106 75 0
-4344 -106 0
-4344 98 0
4344 106 -98 0
-4345 -106 0
-4345 99 0
4345 106 -99 0
-4346 -106 0
-4346 100 0
4346 106 -100 0
-4347 -106 0
-4347 101 0
4347 106 -101 0
-4348 -106 0
-4348 102 0
4348 106 -102 0
-4349 -106 0
-4349 103 0
4349 106 -103 0
-4350 -106 0
-4350 104 0
4350 106 -104 0
-4351 -106 0
-4351 105 0
4351 106 -105 0
-4352 -106 0
-4352 107 0
4352 106 -107 0
-4353 -115 0
-4353 -7 0
4353 115 7 0
-4354 -115 0
-4354 -22 0
4354 115 22 0
-4355 -115 0
-4355 -37 0
4355 115 37 0
-4356 -115 0
-4356 -51 0
4356 115 51 0
-4357 -115 0
-4357 -64 0
4357 115 64 0
-4358 -115 0
-4358 -76 0
4358 115 76 0
-4359 -115 0
-4359 -87 0
4359 115 87 0
-4360 -115 0
-4360 108 0
4360 115 -108 0
-4361 -115 0
-4361 109 0
4361 115 -109 0
-4362 -115 0
-4362 110 0
4362 115 -110 0
-4363 -115 0
-4363 111 0
4363 115 -111 0
-4364 -115 0
-4364 112 0
4364 115 -112 0
-4365 -115 0
-4365 113 0
4365 115 -113 0
-4366 -115 0
-4366 114 0
4366 115 -114 0
-4367 -115 0
-4367 116 0
4367 115 -116 0
-4368 -123 0
-4368 -8 0
4368 123 8 0
-4369 -123 0
-4369 -23 0
4369 123 23 0
-4370 -123 0
-4370 -38 0
4370 123 38 0
-4371 -123 0
-4371 -52 0
4371 123 52 0
-4372 -123 0
-4372 -65 0
4372 123 65 0
-4373 -123 0
-4373 -77 0
4373 123 77 0
-4374 -123 0
-4374 -88 0
4374 123 88 0
-4375 -123 0
-4375 -98 0
4375 123 98 0
-4376 -123 0
-4376 117 0
4376 123 -117 0
-4377 -123 0
-4377 118 0
4377 123 -118 0
-4378 -123 0
-4378 119 0
4378 123 -119 0
-4379 -123 0
-4379 120 0
4379 123 -120 0
-4380 -123 0
-4380 121 0
4380 123 -121 0
-4381 -123 0
-4381 122 0
4381 123 -122 0
-4382 -123 0
-4382 124 0
4382 123 -124 0
-4383 -130 0
-4383 -9 0
4383 130 9 0
-4384 -130 0
-4384 -24 0
4384 130 24 0
-4385 -130 0
-4385 -39 0
4385 130 39 0
-4386 -130 0
-4386 -53 0
4386 130 53 0
-4387 -130 0
-4387 -66 0
4387 130 66 0
-4388 -130 0
-4388 -78 0
4388 130 78 0
-4389 -130 0
-4389 -89 0
4389 130 89 0
-4390 -130 0
-4390 -99 0
4390 130 99 0
-4391 -130 0
-4391 -108 0
4391 130 108 0
-4392 -130 0
-4392 125 0
4392 130 -125 0
-4393 -130 0
-4393 126 0
4393 130 -126 0
-4394 -130 0
-4394 127 0
4394 130 -127 0
-4395 -130 0
-4395 128 0
4395 130 -128 0
-4396 -130 0
-4396 129 0
4396 130 -129 0
-4397 -130 0
-4397 131 0
4397 130 -131 0
-4398 -136 0
-4398 -10 0
4398 136 10 0
-4399 -136 0
-4399 -25 0
4399 136 25 0
-4400 -136 0
-4400 -40 0
4400 136 40 0
-4401 -136 0
-4401 -54 0
4401 136 54 0
-4402 -136 0
-4402 -67 0
4402 136 67 0
-4403 -136 0
-4403 -79 0
4403 136 79 0
-4404 -136 0
-4404 -90 0
4404 136 90 0
-4405 -136 0
-4405 -100 0
4405 136 100 0
-4406 -136 0
-4406 -109 0
4406 136 109 0
-4407 -136 0
-4407 -117 0
4407 136 117 0
-4408 -136 0
-4408 132 0
4408 136 -132 0
-4409 -136 0
-4409 133 0
4409 136 -133 0
-4410 -136 0
-4410 134 0
4410 136 -134 0
-4411 -136 0
-4411 135 0
4411 136 -135 0
-4412 -136 0
-4412 137 0
4412 136 -137 0
-4413 -141 0
-4413 -11 0
4413 141 11 0
-4414 -141 0
-4414 -26 0
4414 141 26 0
-4415 -141 0
-4415 -41 0
4415 141 41 0
-4416 -141 0
-4416 -55 0
4416 141 55 0
-4417 -141 0
-4417 -68 0
4417 141 68 0
-4418 -141 0
-4418 -80 0
4418 141 80 0
-4419 -141 0
-4419 -91 0
4419 141 91 0
-4420 -141 0
-4420 -101 0
4420 141 101 0
-4421 -141 0
-4421 -110 0
4421 141 110 0
-4422 -141 0
-4422 -118 0
4422 141 118 0
-4423 -141 0
-4423 -125 0
4423 141 125 0
-4424 -141 0
-4424 138 0
4424 141 -138 0
-4425 -141 0
-4425 139 0
4425 141 -139 0
-4426 -141 0
-4426 140 0
4426 141 -140 0
-4427 -141 0
-4427 142 0
4427 141 -142 0
-4428 -145 0
-4428 -12 0
4428 145 12 0
-4429 -145 0
-4429 -27 0
4429 145 27 0
-4430 -145 0
-4430 -42 0
4430 145 42 0
-4431 -145 0
-4431 -56 0
4431 145 56 0
-4432 -145 0
-4432 -69 0
4432 145 69 0
-4433 -145 0
-4433 -81 0
4433 145 81 0
-4434 -145 0
-4434 -92 0
4434 145 92 0
-4435 -145 0
-4435 -102 0
4435 145 102 0
-4436 -145 0
-4436 -111 0
4436 145 111 0
-4437 -145 0
-4437 -119 0
4437 145 119 0
-4438 -145 0
-4438 -126 0
4438 145 126 0
-4439 -145 0
-4439 -132 0
4439 145 132 0
-4440 -145 0
-4440 143 0
4440 145 -143 0
-4441 -145 0
-4441 144 0
4441 145 -144 0
-4442 -145 0
-4442 146 0
4442 145 -146 0
-4443 -148 0
-4443 -13 0
4443 148 13 0
-4444 -148 0
-4444 -28 0
4444 148 28 0
-4445 -148 0
-4445 -43 0
4445 148 43 0
-4446 -148 0
-4446 -57 0
4446 148 57 0
-4447 -148 0
-4447 -70 0
4447 148 70 0
-4448 -148 0
-4448 -82 0
4448 148 82 0
-4449 -148 0
-4449 -93 0
4449 148 93 0
-4450 -148 0
-4450 -103 0
4450 148 103 0
-4451 -148 0
-4451 -112 0
4451 148 112 0
-4452 -148 0
-4452 -120 0
4452 148 120 0
-4453 -148 0
-4453 -127 0
4453 148 127 0
-4454 -148 0
-4454 -133 0
4454 148 133 0
-4455 -148 0
-4455 -138 0
4455 148 138 0
-4456 -148 0
-4456 147 0
4456 148 -147 0
-4457 -148 0
-4457 149 0
4457 148 -149 0
-4458 -150 0
-4458 -14 0
4458 150 14 0
-4459 -150 0
-4459 -29 0
4459 150 29 0
-4460 -150 0
-4460 -44 0
4460 150 44 0
-4461 -150 0
-4461 -58 0
4461 150 58 0
-4462 -150 0
-4462 -71 0
4462 150 71 0
-4463 -150 0
-4463 -83 0
4463 150 83 0
-4464 -150 0
-4464 -94 0
4464 150 94 0
-4465 -150 0
-4465 -104 0
4465 150 104 0
-4466 -150 0
-4466 -113 0
4466 150 113 0
-4467 -150 0
-4467 -121 0
4467 150 121 0
-4468 -150 0
-4468 -128 0
4468 150 128 0
-4469 -150 0
-4469 -134 0
4469 150 134 0
-4470 -150 0
-4470 -139 0
4470 150 139 0
-4471 -150 0
-4471 -143 0
4471 150 143 0
-4472 -150 0
-4472 151 0
4472 150 -151 0
-4473 -32 0
-4473 17 0
4473 32 -17 0
-4474 -32 0
-4474 18 0
4474 32 -18 0
-4475 -32 0
-4475 19 0
4475 32 -19 0
-4476 -32 0
-4476 20 0
4476 32 -20 0
-4477 -32 0
-4477 21 0
4477 32 -21 0
-4478 -32 0
-4478 22 0
4478 32 -22 0
-4479 -32 0
-4479 23 0
4479 32 -23 0
-4480 -32 0
-4480 24 0
4480 32 -24 0
-4481 -32 0
-4481 25 0
4481 32 -25 0
-4482 -32 0
-4482 26 0
4482 32 -26 0
-4483 -32 0
-4483 27 0
4483 32 -27 0
-4484 -32 0
-4484 28 0
4484 32 -28 0
-4485 -32 0
-4485 29 0
4485 32 -29 0
-4486 -32 0
-4486 30 0
4486 32 -30 0
-4487 -32 0
-4487 31 0
4487 32 -31 0
-4488 -47 0
-4488 -1 0
4488 47 1 0
-4489 -47 0
-4489 33 0
4489 47 -33 0
-4490 -47 0
-4490 34 0
4490 47 -34 0
-4491 -47 0
-4491 35 0
4491 47 -35 0
-4492 -47 0
-4492 36 0
4492 47 -36 0
-4493 -47 0
-4493 37 0
4493 47 -37 0
-4494 -47 0
-4494 38 0
4494 47 -38 0
-4495 -47 0
-4495 39 0
4495 47 -39 0
-4496 -47 0
-4496 40 0
4496 47 -40 0
-4497 -47 0
-4497 41 0
4497 47 -41 0
-4498 -47 0
-4498 42 0
4498 47 -42 0
-4499 -47 0
-4499 43 0
4499 47 -43 0
-4500 -47 0
-4500 44 0
4500 47 -44 0
-4501 -47 0
-4501 45 0
4501 47 -45 0
-4502 -47 0
-4502 46 0
4502 47 -46 0
-4503 -61 0
-4503 -2 0
4503 61 2 0
-4504 -61 0
-4504 -17 0
4504 61 17 0
-4505 -61 0
-4505 48 0
4505 61 -48 0
-4506 -61 0
-4506 49 0
4506 61 -49 0
-4507 -61 0
-4507 50 0
4507 61 -50 0
-4508 -61 0
-4508 51 0
4508 61 -51 0
-4509 -61 0
-4509 52 0
4509 61 -52 0
-4510 -61 0
-4510 53 0
4510 61 -53 0
-4511 -61 0
-4511 54 0
4511 61 -54 0
-4512 -61 0
-4512 55 0
4512 61 -55 0
-4513 -61 0
-4513 56 0
4513 61 -56 0
-4514 -61 0
-4514 57 0
4514 61 -57 0
-4515 -61 0
-4515 58 0
4515 61 -58 0
-4516 -61 0
-4516 59 0
4516 61 -59 0
-4517 -61 0
-4517 60 0
4517 61 -60 0
-4518 -74 0
-4518 -3 0
4518 74 3 0
-4519 -74 0
-4519 -18 0
4519 74 18 0
-4520 -74 0
-4520 -33 0
4520 74 33 0
-4521 -74 0
-4521 62 0
4521 74 -62 0
-4522 -74 0
-4522 63 0
4522 74 -63 0
-4523 -74 0
-4523 64 0
4523 74 -64 0
-4524 -74 0
-4524 65 0
4524 74 -65 0
-4525 -74 0
-4525 66 0
4525 74 -66 0
-4526 -74 0
-4526 67 0
4526 74 -67 0
-4527 -74 0
-4527 68 0
4527 74 -68 0
-4528 -74 0
-4528 69 0
4528 74 -69 0
-4529 -74 0
-4529 70 0
4529 74 -70 0
-4530 -74 0
-4530 71 0
4530 74 -71 0
-4531 -74 0
-4531 72 0
4531 74 -72 0
-4532 -74 0
-4532 73 0
4532 74 -73 0
-4533 -86 0
-4533 -4 0
4533 86 4 0
-4534 -86 0
-4534 -19 0
4534 86 19 0
-4535 -86 0
-4535 -34 0
4535 86 34 0
-4536 -86 0
-4536 -48 0
4536 86 48 0
-4537 -86 0
-4537 75 0
4537 86 -75 0
-4538 -86 0
-4538 76 0
4538 86 -76 0
-4539 -86 0
-4539 77 0
4539 86 -77 0
-4540 -86 0
-4540 78 0
4540 86 -78 0
-4541 -86 0
-4541 79 0
4541 86 -79 0
-4542 -86 0
-4542 80 0
4542 86 -80 0
-4543 -86 0
-4543 81 0
4543 86 -81 0
-4544 -86 0
-4544 82 0
4544 86 -82 0
-4545 -86 0
-4545 83 0
4545 86 -83 0
-4546 -86 0
-4546 84 0
4546 86 -84 0
-4547 -86 0
-4547 85 0
4547 86 -85 0
-4548 -97 0
-4548 -5 0
4548 97 5 0
-4549 -97 0
-4549 -20 0
4549 97 20 0
-4550 -97 0
-4550 -35 0
4550 97 35 0
-4551 -97 0
-4551 -49 0
4551 97 49 0
-4552 -97 0
-4552 -62 0
4552 97 62 0
-4553 -97 0
-4553 87 0
4553 97 -87 0
-4554 -97 0
-4554 88 0
4554 97 -88 0
-4555 -97 0
-4555 89 0
4555 97 -89 0
-4556 -97 0
-4556 90 0
4556 97 -90 0
-4557 -97 0
-4557 91 0
4557 97 -91 0
-4558 -97 0
-4558 92 0
4558 97 -92 0
-4559 -97 0
-4559 93 0
4559 97 -93 0
-4560 -97 0
-4560 94 0
4560 97 -94 0
-4561 -97 0
-4561 95 0
4561 97 -95 0
-4562 -97 0
-4562 96 0
4562 97 -96 0
-4563 -107 0
-4563 -6 0
4563 107 6 0
-4564 -107 0
-4564 -21 0
4564 107 21 0
-4565 -107 0
-4565 -36 0
4565 107 36 0
-4566 -107 0
-4566 -50 0
4566 107 50 0
-4567 -107 0
-4567 -63 0
4567 107 63 0
-4568 -107 0
-4568 -75 0
4568 107 75 0
-4569 -107 0
-4569 98 0
4569 107 -98 0
-4570 -107 0
-4570 99 0
4570 107 -99 0
-4571 -107 0
-4571 100 0
4571 107 -100 0
-4572 -107 0
-4572 101 0
4572 107 -101 0
-4573 -107 0
-4573 102 0
4573 107 -102 0
-4574 -107 0
-4574 103 0
4574 107 -103 0
-4575 -107 0
-4575 104 0
4575 107 -104 0
-4576 -107 0
-4576 105 0
4576 107 -105 0
-4577 -107 0
-4577 106 0
4577 107 -106 0
-4578 -116 0
-4578 -7 0
4578 116 7 0
-4579 -116 0
-4579 -22 0
4579 116 22 0
-4580 -116 0
-4580 -37 0
4580 116 37 0
-4581 -116 0
-4581 -51 0
4581 116 51 0
-4582 -116 0
-4582 -64 0
4582 116 64 0
-4583 -116 0
-4583 -76 0
4583 116 76 0
-4584 -116 0
-4584 -87 0
4584 116 87 0
-4585 -116 0
-4585 108 0
4585 116 -108 0
-4586 -116 0
-4586 109 0
4586 116 -109 0
-4587 -116 0
-4587 110 0
4587 116 -110 0
-4588 -116 0
-4588 111 0
4588 116 -111 0
-4589 -116 0
-4589 112 0
4589 116 -112 0
-4590 -116 0
-4590 113 0
4590 116 -113 0
-4591 -116 0
-4591 114 0
4591 116 -114 0
-4592 -116 0
-4592 115 0
4592 116 -115 0
-4593 -124 0
-4593 -8 0
4593 124 8 0
-4594 -124 0
-4594 -23 0
4594 124 23 0
-4595 -124 0
-4595 -38 0
4595 124 38 0
-4596 -124 0
-4596 -52 0
4596 124 52 0
-4597 -124 0
-4597 -65 0
4597 124 65 0
-4598 -124 0
-4598 -77 0
4598 124 77 0
-4599 -124 0
-4599 -88 0
4599 124 88 0
-4600 -124 0
-4600 -98 0
4600 124 98 0
-4601 -124 0
-4601 117 0
4601 124 -117 0
-4602 -124 0
-4602 118 0
4602 124 -118 0
-4603 -124 0
-4603 119 0
4603 124 -119 0
-4604 -124 0
-4604 120 0
4604 124 -120 0
-4605 -124 0
-4605 121 0
4605 124 -121 0
-4606 -124 0
-4606 122 0
4606 124 -122 0
-4607 -124 0
-4607 123 0
4607 124 -123 0
-4608 -131 0
-4608 -9 0
4608 131 9 0
-4609 -131 0
-4609 -24 0
4609 131 24 0
-4610 -131 0
-4610 -39 0
4610 131 39 0
-4611 -131 0
-4611 -53 0
4611 131 53 0
-4612 -131 0
-4612 -66 0
4612 131 66 0
-4613 -131 0
-4613 -78 0
4613 131 78 0
-4614 -131 0
-4614 -89 0
4614 131 89 0
-4615 -131 0
-4615 -99 0
4615 131 99 0
-4616 -131 0
-4616 -108 0
4616 131 108 0
-4617 -131 0
-4617 125 0
4617 131 -125 0
-4618 -131 0
-4618 126 0
4618 131 -126 0
-4619 -131 0
-4619 127 0
4619 131 -127 0
-4620 -131 0
-4620 128 0
4620 131 -128 0
-4621 -131 0
-4621 129 0
4621 131 -129 0
-4622 -131 0
-4622 130 0
4622 131 -130 0
-4623 -137 0
-4623 -10 0
4623 137 10 0
-4624 -137 0
-4624 -25 0
4624 137 25 0
-4625 -137 0
-4625 -40 0
4625 137 40 0
-4626 -137 0
-4626 -54 0
4626 137 54 0
-4627 -137 0
-4627 -67 0
4627 137 67 0
-4628 -137 0
-4628 -79 0
4628 137 79 0
-4629 -137 0
-4629 -90 0
4629 137 90 0
-4630 -137 0
-4630 -100 0
4630 137 100 0
-4631 -137 0
-4631 -109 0
4631 137 109 0
-4632 -137 0
-4632 -117 0
4632 137 117 0
-4633 -137 0
-4633 132 0
4633 137 -132 0
-4634 -137 0
-4634 133 0
4634 137 -133 0
-4635 -137 0
-4635 134 0
4635 137 -134 0
-4636 -137 0
-4636 135 0
4636 137 -135 0
-4637 -137 0
-4637 136 0
4637 137 -136 0
-4638 -142 0
-4638 -11 0
4638 142 11 0
-4639 -142 0
-4639 -26 0
4639 142 26 0
-4640 -142 0
-4640 -41 0
4640 142 41 0
-4641 -142 0
-4641 -55 0
4641 142 55 0
-4642 -142 0
-4642 -68 0
4642 142 68 0
-4643 -142 0
-4643 -80 0
4643 142 80 0
-4644 -142 0
-4644 -91 0
4644 142 91 0
-4645 -142 0
-4645 -101 0
4645 142 101 0
-4646 -142 0
-4646 -110 0
4646 142 110 0
-4647 -142 0
-4647 -118 0
4647 142 118 0
-4648 -142 0
-4648 -125 0
4648 142 125 0
-4649 -142 0
-4649 138 0
4649 142 -138 0
-4650 -142 0
-4650 139 0
4650 142 -139 0
-4651 -142 0
-4651 140 0
4651 142 -140 0
-4652 -142 0
-4652 141 0
4652 142 -141 0
-4653 -146 0
-4653 -12 0
4653 146 12 0
-4654 -146 0
-4654 -27 0
4654 146 27 0
-4655 -146 0
-4655 -42 0
4655 146 42 0
-4656 -146 0
-4656 -56 0
4656 146 56 0
-4657 -146 0
-4657 -69 0
4657 146 69 0
-4658 -146 0
-4658 -81 0
4658 146 81 0
-4659 -146 0
-4659 -92 0
4659 146 92 0
-4660 -146 0
-4660 -102 0
4660 146 102 0
-4661 -146 0
-4661 -111 0
4661 146 111 0
-4662 -146 0
-4662 -119 0
4662 146 119 0
-4663 -146 0
-4663 -126 0
4663 146 126 0
-4664 -146 0
-4664 -132 0
4664 146 132 0
-4665 -146 0
-4665 143 0
4665 146 -143 0
-4666 -146 0
-4666 144 0
4666 146 -144 0
-4667 -146 0
-4667 145 0
4667 146 -145 0
-4668 -149 0
-4668 -13 0
4668 149 13 0
-4669 -149 0
-4669 -28 0
4669 149 28 0
-4670 -149 0
-4670 -43 0
4670 149 43 0
-4671 -149 0
-4671 -57 0
4671 149 57 0
-4672 -149 0
-4672 -70 0
4672 149 70 0
-4673 -149 0
-4673 -82 0
4673 149 82 0
-4674 -149 0
-4674 -93 0
4674 149 93 0
-4675 -149 0
-4675 -103 0
4675 149 103 0
-4676 -149 0
-4676 -112 0
4676 149 112 0
-4677 -149 0
-4677 -120 0
4677 149 120 0
-4678 -149 0
-4678 -127 0
4678 149 127 0
-4679 -149 0
-4679 -133 0
4679 149 133 0
-4680 -149 0
-4680 -138 0
4680 149 138 0
-4681 -149 0
-4681 147 0
4681 149 -147 0
-4682 -149 0
-4682 148 0
4682 149 -148 0
-4683 -151 0
-4683 -14 0
4683 151 14 0
-4684 -151 0
-4684 -29 0
4684 151 29 0
-4685 -151 0
-4685 -44 0
4685 151 44 0
-4686 -151 0
-4686 -58 0
4686 151 58 0
-4687 -151 0
-4687 -71 0
4687 151 71 0
-4688 -151 0
-4688 -83 0
4688 151 83 0
-4689 -151 0
-4689 -94 0
4689 151 94 0
-4690 -151 0
-4690 -104 0
4690 151 104 0
-4691 -151 0
-4691 -113 0
4691 151 113 0
-4692 -151 0
-4692 -121 0
4692 151 121 0
-4693 -151 0
-4693 -128 0
4693 151 128 0
-4694 -151 0
-4694 -134 0
4694 151 134 0
-4695 -151 0
-4695 -139 0
4695 151 139 0
-4696 -151 0
-4696 -143 0
4696 151 143 0
-4697 -151 0
-4697 150 0
4697 151 -150 0
-4698 -152 0
-4698 -15 0
4698 152 15 0
-4699 -152 0
-4699 -30 0
4699 152 30 0
-4700 -152 0
-4700 -45 0
4700 152 45 0
-4701 -152 0
-4701 -59 0
4701 152 59 0
-4702 -152 0
-4702 -72 0
4702 152 72 0
-4703 -152 0
-4703 -84 0
4703 152 84 0
-4704 -152 0
-4704 -95 0
4704 152 95 0
-4705 -152 0
-4705 -105 0
4705 152 105 0
-4706 -152 0
-4706 -114 0
4706 152 114 0
-4707 -152 0
-4707 -122 0
4707 152 122 0
-4708 -152 0
-4708 -129 0
4708 152 129 0
-4709 -152 0
-4709 -135 0
4709 152 135 0
-4710 -152 0
-4710 -140 0
4710 152 140 0
-4711 -152 0
-4711 -144 0
4711 152 144 0
-4712 -152 0
-4712 -147 0
4712 152 147 0
-168 4713 0
-183 4713 0
-198 4713 0
-213 4713 0
-228 4713 0
-243 4713 0
-258 4713 0
-273 4713 0
-288 4713 0
-303 4713 0
-318 4713 0
-333 4713 0
-348 4713 0
-363 4713 0
-378 4713 0
-4713 168 183 198 213 228 243 258 273 288 303 318 333 348 363 378 0
-184 4714 0
-199 4714 0
-214 4714 0
-229 4714 0
-244 4714 0
-259 4714 0
-274 4714 0
-289 4714 0
-304 4714 0
-319 4714 0
-334 4714 0
-349 4714 0
-364 4714 0
-379 4714 0
-4714 184 199 214 229 244 259 274 289 304 319 334 349 364 379 0
-200 4715 0
-215 4715 0
-230 4715 0
-245 4715 0
-260 4715 0
-275 4715 0
-290 4715 0
-305 4715 0
-320 4715 0
-335 4715 0
-350 4715 0
-365 4715 0
-380 4715 0
-4715 200 215 230 245 260 275 290 305 320 335 350 365 380 0
-153 4716 0
-216 4716 0
-231 4716 0
-246 4716 0
-261 4716 0
-276 4716 0
-291 4716 0
-306 4716 0
-321 4716 0
-336 4716 0
-351 4716 0
-366 4716 0
-381 4716 0
-4716 153 216 231 246 261 276 291 306 321 336 351 366 381 0
-154 4717 0
-169 4717 0
-232 4717 0
-247 4717 0
-262 4717 0
-277 4717 0
-292 4717 0
-307 4717 0
-322 4717 0
-337 4717 0
-352 4717 0
-367 4717 0
-382 4717 0
-4717 154 169 232 247 262 277 292 307 322 337 352 367 382 0
-155 4718 0
-170 4718 0
-185 4718 0
-248 4718 0
-263 4718 0
-278 4718 0
-293 4718 0
-308 4718 0
-323 4718 0
-338 4718 0
-353 4718 0
-368 4718 0
-383 4718 0
-4718 155 170 185 248 263 278 293 308 323 338 353 368 383 0
-156 4719 0
-171 4719 0
-186 4719 0
-201 4719 0
-264 4719 0
-279 4719 0
-294 4719 0
-309 4719 0
-324 4719 0
-339 4719 0
-354 4719 0
-369 4719 0
-384 4719 0
-4719 156 171 186 201 264 279 294 309 324 339 354 369 384 0
-157 4720 0
-172 4720 0
-187 4720 0
-202 4720 0
-217 4720 0
-280 4720 0
-295 4720 0
-310 4720 0
-325 4720 0
-340 4720 0
-355 4720 0
-370 4720 0
-385 4720 0
-4720 157 172 187 202 217 280 295 310 325 340 355 370 385 0
-158 4721 0
-173 4721 0
-188 4721 0
-203 4721 0
-218 4721 0
-233 4721 0
-296 4721 0
-311 4721 0
-326 4721 0
-341 4721 0
-356 4721 0
-371 4721 0
-386 4721 0
-4721 158 173 188 203 218 233 296 311 326 341 356 371 386 0
-159 4722 0
-174 4722 0
-189 4722 0
-204 4722 0
-219 4722 0
-234 4722 0
-249 4722 0
-312 4722 0
-327 4722 0
-342 4722 0
-357 4722 0
-372 4722 0
-387 4722 0
-4722 159 174 189 204 219 234 249 312 327 342 357 372 387 0
-160 4723 0
-175 4723 0
-190 4723 0
-205 4723 0
-220 4723 0
-235 4723 0
-250 4723 0
-265 4723 0
-328 4723 0
-343 4723 0
-358 4723 0
-373 4723 0
-388 4723 0
-4723 160 175 190 205 220 235 250 265 328 343 358 373 388 0
-161 4724 0
-176 4724 0
-191 4724 0
-206 4724 0
-221 4724 0
-236 4724 0
-251 4724 0
-266 4724 0
-281 4724 0
-344 4724 0
-359 4724 0
-374 4724 0
-389 4724 0
-4724 161 176 191 206 221 236 251 266 281 344 359 374 389 0
-162 4725 0
-177 4725 0
-192 4725 0
-207 4725 0
-222 4725 0
-237 4725 0
-252 4725 0
-267 4725 0
-282 4725 0
-297 4725 0
-360 4725 0
-375 4725 0
-390 4725 0
-4725 162 177 192 207 222 237 252 267 282 297 360 375 390 0
-163 4726 0
-178 4726 0
-193 4726 0
-208 4726 0
-223 4726 0
-238 4726 0
-253 4726 0
-268 4726 0
-283 4726 0
-298 4726 0
-313 4726 0
-376 4726 0
-391 4726 0
-4726 163 178 193 208 223 238 253 268 283 298 313 376 391 0
-164 4727 0
-179 4727 0
-194 4727 0
-209 4727 0
-224 4727 0
-239 4727 0
-254 4727 0
-269 4727 0
-284 4727 0
-299 4727 0
-314 4727 0
-329 4727 0
-392 4727 0
-4727 164 179 194 209 224 239 254 269 284 299 314 329 392 0
-165 4728 0
-180 4728 0
-195 4728 0
-210 4728 0
-225 4728 0
-240 4728 0
-255 4728 0
-270 4728 0
-285 4728 0
-300 4728 0
-315 4728 0
-330 4728 0
-345 4728 0
-4728 165 180 195 210 225 240 255 270 285 300 315 330 345 0
-166 4729 0
-181 4729 0
-196 4729 0
-211 4729 0
-226 4729 0
-241 4729 0
-256 4729 0
-271 4729 0
-286 4729 0
-301 4729 0
-316 4729 0
-331 4729 0
-346 4729 0
-361 4729 0
-4729 166 181 196 211 226 241 256 271 286 301 316 331 346 361 0
-167 4730 0
-182 4730 0
-197 4730 0
-212 4730 0
-227 4730 0
-242 4730 0
-257 4730 0
-272 4730 0
-287 4730 0
-302 4730 0
-317 4730 0
-332 4730 0
-347 4730 0
-362 4730 0
-377 4730 0
-4730 167 182 197 212 227 242 257 272 287 302 317 332 347 362 377 0
-393 4731 0
-408 4731 0
-423 4731 0
-438 4731 0
-453 4731 0
-468 4731 0
-483 4731 0
-498 4731 0
-513 4731 0
-528 4731 0
-543 4731 0
-558 4731 0
-573 4731 0
-588 4731 0
-603 4731 0
-4731 393 408 423 438 453 468 483 498 513 528 543 558 573 588 603 0
-409 4732 0
-424 4732 0
-439 4732 0
-454 4732 0
-469 4732 0
-484 4732 0
-499 4732 0
-514 4732 0
-529 4732 0
-544 4732 0
-559 4732 0
-574 4732 0
-589 4732 0
-604 4732 0
-618 4732 0
-4732 409 424 439 454 469 484 499 514 529 544 559 574 589 604 618 0
-425 4733 0
-440 4733 0
-455 4733 0
-470 4733 0
-485 4733 0
-500 4733 0
-515 4733 0
-530 4733 0
-545 4733 0
-560 4733 0
-575 4733 0
-590 4733 0
-605 4733 0
-619 4733 0
-4733 425 440 455 470 485 500 515 530 545 560 575 590 605 619 0
-441 4734 0
-456 4734 0
-471 4734 0
-486 4734 0
-501 4734 0
-516 4734 0
-531 4734 0
-546 4734 0
-561 4734 0
-576 4734 0
-591 4734 0
-606 4734 0
-620 4734 0
-4734 441 456 471 486 501 516 531 546 561 576 591 606 620 0
-394 4735 0
-457 4735 0
-472 4735 0
-487 4735 0
-502 4735 0
-517 4735 0
-532 4735 0
-547 4735 0
-562 4735 0
-577 4735 0
-592 4735 0
-607 4735 0
-621 4735 0
-4735 394 457 472 487 502 517 532 547 562 577 592 607 621 0
-395 4736 0
-410 4736 0
-473 4736 0
-488 4736 0
-503 4736 0
-518 4736 0
-533 4736 0
-548 4736 0
-563 4736 0
-578 4736 0
-593 4736 0
-608 4736 0
-622 4736 0
-4736 395 410 473 488 503 518 533 548 563 578 593 608 622 0
-396 4737 0
-411 4737 0
-426 4737 0
-489 4737 0
-504 4737 0
-519 4737 0
-534 4737 0
-549 4737 0
-564 4737 0
-579 4737 0
-594 4737 0
-609 4737 0
-623 4737 0
-4737 396 411 426 489 504 519 534 549 564 579 594 609 623 0
-397 4738 0
-412 4738 0
-427 4738 0
-442 4738 0
-505 4738 0
-520 4738 0
-535 4738 0
-550 4738 0
-565 4738 0
-580 4738 0
-595 4738 0
-610 4738 0
-624 4738 0
-4738 397 412 427 442 505 520 535 550 565 580 595 610 624 0
-398 4739 0
-413 4739 0
-428 4739 0
-443 4739 0
-458 4739 0
-521 4739 0
-536 4739 0
-551 4739 0
-566 4739 0
-581 4739 0
-596 4739 0
-611 4739 0
-625 4739 0
-4739 398 413 428 443 458 521 536 551 566 581 596 611 625 0
-399 4740 0
-414 4740 0
-429 4740 0
-444 4740 0
-459 4740 0
-474 4740 0
-537 4740 0
-552 4740 0
-567 4740 0
-582 4740 0
-597 4740 0
-612 4740 0
-626 4740 0
-4740 399 414 429 444 459 474 537 552 567 582 597 612 626 0
-400 4741 0
-415 4741 0
-430 4741 0
-445 4741 0
-460 4741 0
-475 4741 0
-490 4741 0
-553 4741 0
-568 4741 0
-583 4741 0
-598 4741 0
-613 4741 0
-627 4741 0
-4741 400 415 430 445 460 475 490 553 568 583 598 613 627 0
-401 4742 0
-416 4742 0
-431 4742 0
-446 4742 0
-461 4742 0
-476 4742 0
-491 4742 0
-506 4742 0
-569 4742 0
-584 4742 0
-599 4742 0
-614 4742 0
-628 4742 0
-4742 401 416 431 446 461 476 491 506 569 584 599 614 628 0
-402 4743 0
-417 4743 0
-432 4743 0
-447 4743 0
-462 4743 0
-477 4743 0
-492 4743 0
-507 4743 0
-522 4743 0
-585 4743 0
-600 4743 0
-615 4743 0
-629 4743 0
-4743 402 417 432 447 462 477 492 507 522 585 600 615 629 0
-403 4744 0
-418 4744 0
-433 4744 0
-448 4744 0
-463 4744 0
-478 4744 0
-493 4744 0
-508 4744 0
-523 4744 0
-538 4744 0
-601 4744 0
-616 4744 0
-630 4744 0
-4744 403 418 433 448 463 478 493 508 523 538 601 616 630 0
-404 4745 0
-419 4745 0
-434 4745 0
-449 4745 0
-464 4745 0
-479 4745 0
-494 4745 0
-509 4745 0
-524 4745 0
-539 4745 0
-554 4745 0
-617 4745 0
-631 4745 0
-4745 404 419 434 449 464 479 494 509 524 539 554 617 631 0
-405 4746 0
-420 4746 0
-435 4746 0
-450 4746 0
-465 4746 0
-480 4746 0
-495 4746 0
-510 4746 0
-525 4746 0
-540 4746 0
-555 4746 0
-570 4746 0
-632 4746 0
-4746 405 420 435 450 465 480 495 510 525 540 555 570 632 0
-406 4747 0
-421 4747 0
-436 4747 0
-451 4747 0
-466 4747 0
-481 4747 0
-496 4747 0
-511 4747 0
-526 4747 0
-541 4747 0
-556 4747 0
-571 4747 0
-586 4747 0
-4747 406 421 436 451 466 481 496 511 526 541 556 571 586 0
-407 4748 0
-422 4748 0
-437 4748 0
-452 4748 0
-467 4748 0
-482 4748 0
-497 4748 0
-512 4748 0
-527 4748 0
-542 4748 0
-557 4748 0
-572 4748 0
-587 4748 0
-602 4748 0
-4748 407 422 437 452 467 482 497 512 527 542 557 572 587 602 0
-648 4749 0
-663 4749 0
-678 4749 0
-693 4749 0
-708 4749 0
-723 4749 0
-738 4749 0
-753 4749 0
-768 4749 0
-783 4749 0
-798 4749 0
-813 4749 0
-828 4749 0
-843 4749 0
-4749 648 663 678 693 708 723 738 753 768 783 798 813 828 843 0
-649 4750 0
-664 4750 0
-679 4750 0
-694 4750 0
-709 4750 0
-724 4750 0
-739 4750 0
-754 4750 0
-769 4750 0
-784 4750 0
-799 4750 0
-814 4750 0
-829 4750 0
-844 4750 0
-858 4750 0
-4750 649 664 679 694 709 724 739 754 769 784 799 814 829 844 858 0
-633 4751 0
-665 4751 0
-680 4751 0
-695 4751 0
-710 4751 0
-725 4751 0
-740 4751 0
-755 4751 0
-770 4751 0
-785 4751 0
-800 4751 0
-815 4751 0
-830 4751 0
-845 4751 0
-859 4751 0
-4751 633 665 680 695 710 725 740 755 770 785 800 815 830 845 859 0
-634 4752 0
-681 4752 0
-696 4752 0
-711 4752 0
-726 4752 0
-741 4752 0
-756 4752 0
-771 4752 0
-786 4752 0
-801 4752 0
-816 4752 0
-831 4752 0
-846 4752 0
-860 4752 0
-4752 634 681 696 711 726 741 756 771 786 801 816 831 846 860 0
-635 4753 0
-697 4753 0
-712 4753 0
-727 4753 0
-742 4753 0
-757 4753 0
-772 4753 0
-787 4753 0
-802 4753 0
-817 4753 0
-832 4753 0
-847 4753 0
-861 4753 0
-4753 635 697 712 727 742 757 772 787 802 817 832 847 861 0
-636 4754 0
-650 4754 0
-713 4754 0
-728 4754 0
-743 4754 0
-758 4754 0
-773 4754 0
-788 4754 0
-803 4754 0
-818 4754 0
-833 4754 0
-848 4754 0
-862 4754 0
-4754 636 650 713 728 743 758 773 788 803 818 833 848 862 0
-637 4755 0
-651 4755 0
-666 4755 0
-729 4755 0
-744 4755 0
-759 4755 0
-774 4755 0
-789 4755 0
-804 4755 0
-819 4755 0
-834 4755 0
-849 4755 0
-863 4755 0
-4755 637 651 666 729 744 759 774 789 804 819 834 849 863 0
-638 4756 0
-652 4756 0
-667 4756 0
-682 4756 0
-745 4756 0
-760 4756 0
-775 4756 0
-790 4756 0
-805 4756 0
-820 4756 0
-835 4756 0
-850 4756 0
-864 4756 0
-4756 638 652 667 682 745 760 775 790 805 820 835 850 864 0
-639 4757 0
-653 4757 0
-668 4757 0
-683 4757 0
-698 4757 0
-761 4757 0
-776 4757 0
-791 4757 0
-806 4757 0
-821 4757 0
-836 4757 0
-851 4757 0
-865 4757 0
-4757 639 653 668 683 698 761 776 791 806 821 836 851 865 0
-640 4758 0
-654 4758 0
-669 4758 0
-684 4758 0
-699 4758 0
-714 4758 0
-777 4758 0
-792 4758 0
-807 4758 0
-822 4758 0
-837 4758 0
-852 4758 0
-866 4758 0
-4758 640 654 669 684 699 714 777 792 807 822 837 852 866 0
-641 4759 0
-655 4759 0
-670 4759 0
-685 4759 0
-700 4759 0
-715 4759 0
-730 4759 0
-793 4759 0
-808 4759 0
-823 4759 0
-838 4759 0
-853 4759 0
-867 4759 0
-4759 641 655 670 685 700 715 730 793 808 823 838 853 867 0
-642 4760 0
-656 4760 0
-671 4760 0
-686 4760 0
-701 4760 0
-716 4760 0
-731 4760 0
-746 4760 0
-809 4760 0
-824 4760 0
-839 4760 0
-854 4760 0
-868 4760 0
-4760 642 656 671 686 701 716 731 746 809 824 839 854 868 0
-643 4761 0
-657 4761 0
-672 4761 0
-687 4761 0
-702 4761 0
-717 4761 0
-732 4761 0
-747 4761 0
-762 4761 0
-825 4761 0
-840 4761 0
-855 4761 0
-869 4761 0
-4761 643 657 672 687 702 717 732 747 762 825 840 855 869 0
-644 4762 0
-658 4762 0
-673 4762 0
-688 4762 0
-703 4762 0
-718 4762 0
-733 4762 0
-748 4762 0
-763 4762 0
-778 4762 0
-841 4762 0
-856 4762 0
-870 4762 0
-4762 644 658 673 688 703 718 733 748 763 778 841 856 870 0
-645 4763 0
-659 4763 0
-674 4763 0
-689 4763 0
-704 4763 0
-719 4763 0
-734 4763 0
-749 4763 0
-764 4763 0
-779 4763 0
-794 4763 0
-857 4763 0
-871 4763 0
-4763 645 659 674 689 704 719 734 749 764 779 794 857 871 0
-646 4764 0
-660 4764 0
-675 4764 0
-690 4764 0
-705 4764 0
-720 4764 0
-735 4764 0
-750 4764 0
-765 4764 0
-780 4764 0
-795 4764 0
-810 4764 0
-872 4764 0
-4764 646 660 675 690 705 720 735 750 765 780 795 810 872 0
-647 4765 0
-661 4765 0
-676 4765 0
-691 4765 0
-706 4765 0
-721 4765 0
-736 4765 0
-751 4765 0
-766 4765 0
-781 4765 0
-796 4765 0
-811 4765 0
-826 4765 0
-4765 647 661 676 691 706 721 736 751 766 781 796 811 826 0
-662 4766 0
-677 4766 0
-692 4766 0
-707 4766 0
-722 4766 0
-737 4766 0
-752 4766 0
-767 4766 0
-782 4766 0
-797 4766 0
-812 4766 0
-827 4766 0
-842 4766 0
-4766 662 677 692 707 722 737 752 767 782 797 812 827 842 0
-903 4767 0
-918 4767 0
-933 4767 0
-948 4767 0
-963 4767 0
-978 4767 0
-993 4767 0
-1008 4767 0
-1023 4767 0
-1038 4767 0
-1053 4767 0
-1068 4767 0
-1083 4767 0
-4767 903 918 933 948 963 978 993 1008 1023 1038 1053 1068 1083 0
-904 4768 0
-919 4768 0
-934 4768 0
-949 4768 0
-964 4768 0
-979 4768 0
-994 4768 0
-1009 4768 0
-1024 4768 0
-1039 4768 0
-1054 4768 0
-1069 4768 0
-1084 4768 0
-1098 4768 0
-4768 904 919 934 949 964 979 994 1009 1024 1039 1054 1069 1084 1098 0
-873 4769 0
-905 4769 0
-920 4769 0
-935 4769 0
-950 4769 0
-965 4769 0
-980 4769 0
-995 4769 0
-1010 4769 0
-1025 4769 0
-1040 4769 0
-1055 4769 0
-1070 4769 0
-1085 4769 0
-1099 4769 0
-4769 873 905 920 935 950 965 980 995 1010 1025 1040 1055 1070 1085 1099 0
-874 4770 0
-888 4770 0
-921 4770 0
-936 4770 0
-951 4770 0
-966 4770 0
-981 4770 0
-996 4770 0
-1011 4770 0
-1026 4770 0
-1041 4770 0
-1056 4770 0
-1071 4770 0
-1086 4770 0
-1100 4770 0
-4770 874 888 921 936 951 966 981 996 1011 1026 1041 1056 1071 1086 1100 0
-875 4771 0
-889 4771 0
-937 4771 0
-952 4771 0
-967 4771 0
-982 4771 0
-997 4771 0
-1012 4771 0
-1027 4771 0
-1042 4771 0
-1057 4771 0
-1072 4771 0
-1087 4771 0
-1101 4771 0
-4771 875 889 937 952 967 982 997 1012 1027 1042 1057 1072 1087 1101 0
-876 4772 0
-890 4772 0
-953 4772 0
-968 4772 0
-983 4772 0
-998 4772 0
-1013 4772 0
-1028 4772 0
-1043 4772 0
-1058 4772 0
-1073 4772 0
-1088 4772 0
-1102 4772 0
-4772 876 890 953 968 983 998 1013 1028 1043 1058 1073 1088 1102 0
-877 4773 0
-891 4773 0
-906 4773 0
-969 4773 0
-984 4773 0
-999 4773 0
-1014 4773 0
-1029 4773 0
-1044 4773 0
-1059 4773 0
-1074 4773 0
-1089 4773 0
-1103 4773 0
-4773 877 891 906 969 984 999 1014 1029 1044 1059 1074 1089 1103 0
-878 4774 0
-892 4774 0
-907 4774 0
-922 4774 0
-985 4774 0
-1000 4774 0
-1015 4774 0
-1030 4774 0
-1045 4774 0
-1060 4774 0
-1075 4774 0
-1090 4774 0
-1104 4774 0
-4774 878 892 907 922 985 1000 1015 1030 1045 1060 1075 1090 1104 0
-879 4775 0
-893 4775 0
-908 4775 0
-923 4775 0
-938 4775 0
-1001 4775 0
-1016 4775 0
-1031 4775 0
-1046 4775 0
-1061 4775 0
-1076 4775 0
-1091 4775 0
-1105 4775 0
-4775 879 893 908 923 938 1001 1016 1031 1046 1061 1076 1091 1105 0
-880 4776 0
-894 4776 0
-909 4776 0
-924 4776 0
-939 4776 0
-954 4776 0
-1017 4776 0
-1032 4776 0
-1047 4776 0
-1062 4776 0
-1077 4776 0
-1092 4776 0
-1106 4776 0
-4776 880 894 909 924 939 954 1017 1032 1047 1062 1077 1092 1106 0
-881 4777 0
-895 4777 0
-910 4777 0
-925 4777 0
-940 4777 0
-955 4777 0
-970 4777 0
-1033 4777 0
-1048 4777 0
-1063 4777 0
-1078 4777 0
-1093 4777 0
-1107 4777 0
-4777 881 895 910 925 940 955 970 1033 1048 1063 1078 1093 1107 0
-882 4778 0
-896 4778 0
-911 4778 0
-926 4778 0
-941 4778 0
-956 4778 0
-971 4778 0
-986 4778 0
-1049 4778 0
-1064 4778 0
-1079 4778 0
-1094 4778 0
-1108 4778 0
-4778 882 896 911 926 941 956 971 986 1049 1064 1079 1094 1108 0
-883 4779 0
-897 4779 0
-912 4779 0
-927 4779 0
-942 4779 0
-957 4779 0
-972 4779 0
-987 4779 0
-1002 4779 0
-1065 4779 0
-1080 4779 0
-1095 4779 0
-1109 4779 0
-4779 883 897 912 927 942 957 972 987 1002 1065 1080 1095 1109 0
-884 4780 0
-898 4780 0
-913 4780 0
-928 4780 0
-943 4780 0
-958 4780 0
-973 4780 0
-988 4780 0
-1003 4780 0
-1018 4780 0
-1081 4780 0
-1096 4780 0
-1110 4780 0
-4780 884 898 913 928 943 958 973 988 1003 1018 1081 1096 1110 0
-885 4781 0
-899 4781 0
-914 4781 0
-929 4781 0
-944 4781 0
-959 4781 0
-974 4781 0
-989 4781 0
-1004 4781 0
-1019 4781 0
-1034 4781 0
-1097 4781 0
-1111 4781 0
-4781 885 899 914 929 944 959 974 989 1004 1019 1034 1097 1111 0
-886 4782 0
-900 4782 0
-915 4782 0
-930 4782 0
-945 4782 0
-960 4782 0
-975 4782 0
-990 4782 0
-1005 4782 0
-1020 4782 0
-1035 4782 0
-1050 4782 0
-1112 4782 0
-4782 886 900 915 930 945 960 975 990 1005 1020 1035 1050 1112 0
-887 4783 0
-901 4783 0
-916 4783 0
-931 4783 0
-946 4783 0
-961 4783 0
-976 4783 0
-991 4783 0
-1006 4783 0
-1021 4783 0
-1036 4783 0
-1051 4783 0
-1066 4783 0
-4783 887 901 916 931 946 961 976 991 1006 1021 1036 1051 1066 0
-902 4784 0
-917 4784 0
-932 4784 0
-947 4784 0
-962 4784 0
-977 4784 0
-992 4784 0
-1007 4784 0
-1022 4784 0
-1037 4784 0
-1052 4784 0
-1067 4784 0
-1082 4784 0
-4784 902 917 932 947 962 977 992 1007 1022 1037 1052 1067 1082 0
-1143 4785 0
-1158 4785 0
-1173 4785 0
-1188 4785 0
-1203 4785 0
-1218 4785 0
-1233 4785 0
-1248 4785 0
-1263 4785 0
-1278 4785 0
-1293 4785 0
-1308 4785 0
-1323 4785 0
-4785 1143 1158 1173 1188 1203 1218 1233 1248 1263 1278 1293 1308 1323 0
-1159 4786 0
-1174 4786 0
-1189 4786 0
-1204 4786 0
-1219 4786 0
-1234 4786 0
-1249 4786 0
-1264 4786 0
-1279 4786 0
-1294 4786 0
-1309 4786 0
-1324 4786 0
-1338 4786 0
-4786 1159 1174 1189 1204 1219 1234 1249 1264 1279 1294 1309 1324 1338 0
-1113 4787 0
-1160 4787 0
-1175 4787 0
-1190 4787 0
-1205 4787 0
-1220 4787 0
-1235 4787 0
-1250 4787 0
-1265 4787 0
-1280 4787 0
-1295 4787 0
-1310 4787 0
-1325 4787 0
-1339 4787 0
-4787 1113 1160 1175 1190 1205 1220 1235 1250 1265 1280 1295 1310 1325 1339 0
-1114 4788 0
-1128 4788 0
-1161 4788 0
-1176 4788 0
-1191 4788 0
-1206 4788 0
-1221 4788 0
-1236 4788 0
-1251 4788 0
-1266 4788 0
-1281 4788 0
-1296 4788 0
-1311 4788 0
-1326 4788 0
-1340 4788 0
-4788 1114 1128 1161 1176 1191 1206 1221 1236 1251 1266 1281 1296 1311 1326 1340 0
-1115 4789 0
-1129 4789 0
-1144 4789 0
-1177 4789 0
-1192 4789 0
-1207 4789 0
-1222 4789 0
-1237 4789 0
-1252 4789 0
-1267 4789 0
-1282 4789 0
-1297 4789 0
-1312 4789 0
-1327 4789 0
-1341 4789 0
-4789 1115 1129 1144 1177 1192 1207 1222 1237 1252 1267 1282 1297 1312 1327 1341 0
-1116 4790 0
-1130 4790 0
-1145 4790 0
-1193 4790 0
-1208 4790 0
-1223 4790 0
-1238 4790 0
-1253 4790 0
-1268 4790 0
-1283 4790 0
-1298 4790 0
-1313 4790 0
-1328 4790 0
-1342 4790 0
-4790 1116 1130 1145 1193 1208 1223 1238 1253 1268 1283 1298 1313 1328 1342 0
-1117 4791 0
-1131 4791 0
-1146 4791 0
-1209 4791 0
-1224 4791 0
-1239 4791 0
-1254 4791 0
-1269 4791 0
-1284 4791 0
-1299 4791 0
-1314 4791 0
-1329 4791 0
-1343 4791 0
-4791 1117 1131 1146 1209 1224 1239 1254 1269 1284 1299 1314 1329 1343 0
-1118 4792 0
-1132 4792 0
-1147 4792 0
-1162 4792 0
-1225 4792 0
-1240 4792 0
-1255 4792 0
-1270 4792 0
-1285 4792 0
-1300 4792 0
-1315 4792 0
-1330 4792 0
-1344 4792 0
-4792 1118 1132 1147 1162 1225 1240 1255 1270 1285 1300 1315 1330 1344 0
-1119 4793 0
-1133 4793 0
-1148 4793 0
-1163 4793 0
-1178 4793 0
-1241 4793 0
-1256 4793 0
-1271 4793 0
-1286 4793 0
-1301 4793 0
-1316 4793 0
-1331 4793 0
-1345 4793 0
-4793 1119 1133 1148 1163 1178 1241 1256 1271 1286 1301 1316 1331 1345 0
-1120 4794 0
-1134 4794 0
-1149 4794 0
-1164 4794 0
-1179 4794 0
-1194 4794 0
-1257 4794 0
-1272 4794 0
-1287 4794 0
-1302 4794 0
-1317 4794 0
-1332 4794 0
-1346 4794 0
-4794 1120 1134 1149 1164 1179 1194 1257 1272 1287 1302 1317 1332 1346 0
-1121 4795 0
-1135 4795 0
-1150 4795 0
-1165 4795 0
-1180 4795 0
-1195 4795 0
-1210 4795 0
-1273 4795 0
-1288 4795 0
-1303 4795 0
-1318 4795 0
-1333 4795 0
-1347 4795 0
-4795 1121 1135 1150 1165 1180 1195 1210 1273 1288 1303 1318 1333 1347 0
-1122 4796 0
-1136 4796 0
-1151 4796 0
-1166 4796 0
-1181 4796 0
-1196 4796 0
-1211 4796 0
-1226 4796 0
-1289 4796 0
-1304 4796 0
-1319 4796 0
-1334 4796 0
-1348 4796 0
-4796 1122 1136 1151 1166 1181 1196 1211 1226 1289 1304 1319 1334 1348 0
-1123 4797 0
-1137 4797 0
-1152 4797 0
-1167 4797 0
-1182 4797 0
-1197 4797 0
-1212 4797 0
-1227 4797 0
-1242 4797 0
-1305 4797 0
-1320 4797 0
-1335 4797 0
-1349 4797 0
-4797 1123 1137 1152 1167 1182 1197 1212 1227 1242 1305 1320 1335 1349 0
-1124 4798 0
-1138 4798 0
-1153 4798 0
-1168 4798 0
-1183 4798 0
-1198 4798 0
-1213 4798 0
-1228 4798 0
-1243 4798 0
-1258 4798 0
-1321 4798 0
-1336 4798 0
-1350 4798 0
-4798 1124 1138 1153 1168 1183 1198 1213 1228 1243 1258 1321 1336 1350 0
-1125 4799 0
-1139 4799 0
-1154 4799 0
-1169 4799 0
-1184 4799 0
-1199 4799 0
-1214 4799 0
-1229 4799 0
-1244 4799 0
-1259 4799 0
-1274 4799 0
-1337 4799 0
-1351 4799 0
-4799 1125 1139 1154 1169 1184 1199 1214 1229 1244 1259 1274 1337 1351 0
-1126 4800 0
-1140 4800 0
-1155 4800 0
-1170 4800 0
-1185 4800 0
-1200 4800 0
-1215 4800 0
-1230 4800 0
-1245 4800 0
-1260 4800 0
-1275 4800 0
-1290 4800 0
-1352 4800 0
-4800 1126 1140 1155 1170 1185 1200 1215 1230 1245 1260 1275 1290 1352 0
-1127 4801 0
-1141 4801 0
-1156 4801 0
-1171 4801 0
-1186 4801 0
-1201 4801 0
-1216 4801 0
-1231 4801 0
-1246 4801 0
-1261 4801 0
-1276 4801 0
-1291 4801 0
-1306 4801 0
-4801 1127 1141 1156 1171 1186 1201 1216 1231 1246 1261 1276 1291 1306 0
-1142 4802 0
-1157 4802 0
-1172 4802 0
-1187 4802 0
-1202 4802 0
-1217 4802 0
-1232 4802 0
-1247 4802 0
-1262 4802 0
-1277 4802 0
-1292 4802 0
-1307 4802 0
-1322 4802 0
-4802 1142 1157 1172 1187 1202 1217 1232 1247 1262 1277 1292 1307 1322 0
-1383 4803 0
-1398 4803 0
-1413 4803 0
-1428 4803 0
-1443 4803 0
-1458 4803 0
-1473 4803 0
-1488 4803 0
-1503 4803 0
-1518 4803 0
-1533 4803 0
-1548 4803 0
-1563 4803 0
-4803 1383 1398 1413 1428 1443 1458 1473 1488 1503 1518 1533 1548 1563 0
-1399 4804 0
-1414 4804 0
-1429 4804 0
-1444 4804 0
-1459 4804 0
-1474 4804 0
-1489 4804 0
-1504 4804 0
-1519 4804 0
-1534 4804 0
-1549 4804 0
-1564 4804 0
-1578 4804 0
-4804 1399 1414 1429 1444 1459 1474 1489 1504 1519 1534 1549 1564 1578 0
-1353 4805 0
-1415 4805 0
-1430 4805 0
-1445 4805 0
-1460 4805 0
-1475 4805 0
-1490 4805 0
-1505 4805 0
-1520 4805 0
-1535 4805 0
-1550 4805 0
-1565 4805 0
-1579 4805 0
-4805 1353 1415 1430 1445 1460 1475 1490 1505 1520 1535 1550 1565 1579 0
-1354 4806 0
-1368 4806 0
-1416 4806 0
-1431 4806 0
-1446 4806 0
-1461 4806 0
-1476 4806 0
-1491 4806 0
-1506 4806 0
-1521 4806 0
-1536 4806 0
-1551 4806 0
-1566 4806 0
-1580 4806 0
-4806 1354 1368 1416 1431 1446 1461 1476 1491 1506 1521 1536 1551 1566 1580 0
-1355 4807 0
-1369 4807 0
-1384 4807 0
-1417 4807 0
-1432 4807 0
-1447 4807 0
-1462 4807 0
-1477 4807 0
-1492 4807 0
-1507 4807 0
-1522 4807 0
-1537 4807 0
-1552 4807 0
-1567 4807 0
-1581 4807 0
-4807 1355 1369 1384 1417 1432 1447 1462 1477 1492 1507 1522 1537 1552 1567 1581 0
-1356 4808 0
-1370 4808 0
-1385 4808 0
-1400 4808 0
-1433 4808 0
-1448 4808 0
-1463 4808 0
-1478 4808 0
-1493 4808 0
-1508 4808 0
-1523 4808 0
-1538 4808 0
-1553 4808 0
-1568 4808 0
-1582 4808 0
-4808 1356 1370 1385 1400 1433 1448 1463 1478 1493 1508 1523 1538 1553 1568 1582 0
-1357 4809 0
-1371 4809 0
-1386 4809 0
-1401 4809 0
-1449 4809 0
-1464 4809 0
-1479 4809 0
-1494 4809 0
-1509 4809 0
-1524 4809 0
-1539 4809 0
-1554 4809 0
-1569 4809 0
-1583 4809 0
-4809 1357 1371 1386 1401 1449 1464 1479 1494 1509 1524 1539 1554 1569 1583 0
-1358 4810 0
-1372 4810 0
-1387 4810 0
-1402 4810 0
-1465 4810 0
-1480 4810 0
-1495 4810 0
-1510 4810 0
-1525 4810 0
-1540 4810 0
-1555 4810 0
-1570 4810 0
-1584 4810 0
-4810 1358 1372 1387 1402 1465 1480 1495 1510 1525 1540 1555 1570 1584 0
-1359 4811 0
-1373 4811 0
-1388 4811 0
-1403 4811 0
-1418 4811 0
-1481 4811 0
-1496 4811 0
-1511 4811 0
-1526 4811 0
-1541 4811 0
-1556 4811 0
-1571 4811 0
-1585 4811 0
-4811 1359 1373 1388 1403 1418 1481 1496 1511 1526 1541 1556 1571 1585 0
-1360 4812 0
-1374 4812 0
-1389 4812 0
-1404 4812 0
-1419 4812 0
-1434 4812 0
-1497 4812 0
-1512 4812 0
-1527 4812 0
-1542 4812 0
-1557 4812 0
-1572 4812 0
-1586 4812 0
-4812 1360 1374 1389 1404 1419 1434 1497 1512 1527 1542 1557 1572 1586 0
-1361 4813 0
-1375 4813 0
-1390 4813 0
-1405 4813 0
-1420 4813 0
-1435 4813 0
-1450 4813 0
-1513 4813 0
-1528 4813 0
-1543 4813 0
-1558 4813 0
-1573 4813 0
-1587 4813 0
-4813 1361 1375 1390 1405 1420 1435 1450 1513 1528 1543 1558 1573 1587 0
-1362 4814 0
-1376 4814 0
-1391 4814 0
-1406 4814 0
-1421 4814 0
-1436 4814 0
-1451 4814 0
-1466 4814 0
-1529 4814 0
-1544 4814 0
-1559 4814 0
-1574 4814 0
-1588 4814 0
-4814 1362 1376 1391 1406 1421 1436 1451 1466 1529 1544 1559 1574 1588 0
-1363 4815 0
-1377 4815 0
-1392 4815 0
-1407 4815 0
-1422 4815 0
-1437 4815 0
-1452 4815 0
-1467 4815 0
-1482 4815 0
-1545 4815 0
-1560 4815 0
-1575 4815 0
-1589 4815 0
-4815 1363 1377 1392 1407 1422 1437 1452 1467 1482 1545 1560 1575 1589 0
-1364 4816 0
-1378 4816 0
-1393 4816 0
-1408 4816 0
-1423 4816 0
-1438 4816 0
-1453 4816 0
-1468 4816 0
-1483 4816 0
-1498 4816 0
-1561 4816 0
-1576 4816 0
-1590 4816 0
-4816 1364 1378 1393 1408 1423 1438 1453 1468 1483 1498 1561 1576 1590 0
-1365 4817 0
-1379 4817 0
-1394 4817 0
-1409 4817 0
-1424 4817 0
-1439 4817 0
-1454 4817 0
-1469 4817 0
-1484 4817 0
-1499 4817 0
-1514 4817 0
-1577 4817 0
-1591 4817 0
-4817 1365 1379 1394 1409 1424 1439 1454 1469 1484 1499 1514 1577 1591 0
-1366 4818 0
-1380 4818 0
-1395 4818 0
-1410 4818 0
-1425 4818 0
-1440 4818 0
-1455 4818 0
-1470 4818 0
-1485 4818 0
-1500 4818 0
-1515 4818 0
-1530 4818 0
-1592 4818 0
-4818 1366 1380 1395 1410 1425 1440 1455 1470 1485 1500 1515 1530 1592 0
-1367 4819 0
-1381 4819 0
-1396 4819 0
-1411 4819 0
-1426 4819 0
-1441 4819 0
-1456 4819 0
-1471 4819 0
-1486 4819 0
-1501 4819 0
-1516 4819 0
-1531 4819 0
-1546 4819 0
-4819 1367 1381 1396 1411 1426 1441 1456 1471 1486 1501 1516 1531 1546 0
-1382 4820 0
-1397 4820 0
-1412 4820 0
-1427 4820 0
-1442 4820 0
-1457 4820 0
-1472 4820 0
-1487 4820 0
-1502 4820 0
-1517 4820 0
-1532 4820 0
-1547 4820 0
-1562 4820 0
-4820 1382 1397 1412 1427 1442 1457 1472 1487 1502 1517 1532 1547 1562 0
-1623 4821 0
-1638 4821 0
-1653 4821 0
-1668 4821 0
-1683 4821 0
-1698 4821 0
-1713 4821 0
-1728 4821 0
-1743 4821 0
-1758 4821 0
-1773 4821 0
-1788 4821 0
-1803 4821 0
-4821 1623 1638 1653 1668 1683 1698 1713 1728 1743 1758 1773 1788 1803 0
-1639 4822 0
-1654 4822 0
-1669 4822 0
-1684 4822 0
-1699 4822 0
-1714 4822 0
-1729 4822 0
-1744 4822 0
-1759 4822 0
-1774 4822 0
-1789 4822 0
-1804 4822 0
-1818 4822 0
-4822 1639 1654 1669 1684 1699 1714 1729 1744 1759 1774 1789 1804 1818 0
-1593 4823 0
-1655 4823 0
-1670 4823 0
-1685 4823 0
-1700 4823 0
-1715 4823 0
-1730 4823 0
-1745 4823 0
-1760 4823 0
-1775 4823 0
-1790 4823 0
-1805 4823 0
-1819 4823 0
-4823 1593 1655 1670 1685 1700 1715 1730 1745 1760 1775 1790 1805 1819 0
-1594 4824 0
-1608 4824 0
-1671 4824 0
-1686 4824 0
-1701 4824 0
-1716 4824 0
-1731 4824 0
-1746 4824 0
-1761 4824 0
-1776 4824 0
-1791 4824 0
-1806 4824 0
-1820 4824 0
-4824 1594 1608 1671 1686 1701 1716 1731 1746 1761 1776 1791 1806 1820 0
-1595 4825 0
-1609 4825 0
-1624 4825 0
-1672 4825 0
-1687 4825 0
-1702 4825 0
-1717 4825 0
-1732 4825 0
-1747 4825 0
-1762 4825 0
-1777 4825 0
-1792 4825 0
-1807 4825 0
-1821 4825 0
-4825 1595 1609 1624 1672 1687 1702 1717 1732 1747 1762 1777 1792 1807 1821 0
-1596 4826 0
-1610 4826 0
-1625 4826 0
-1640 4826 0
-1673 4826 0
-1688 4826 0
-1703 4826 0
-1718 4826 0
-1733 4826 0
-1748 4826 0
-1763 4826 0
-1778 4826 0
-1793 4826 0
-1808 4826 0
-1822 4826 0
-4826 1596 1610 1625 1640 1673 1688 1703 1718 1733 1748 1763 1778 1793 1808 1822 0
-1597 4827 0
-1611 4827 0
-1626 4827 0
-1641 4827 0
-1656 4827 0
-1689 4827 0
-1704 4827 0
-1719 4827 0
-1734 4827 0
-1749 4827 0
-1764 4827 0
-1779 4827 0
-1794 4827 0
-1809 4827 0
-1823 4827 0
-4827 1597 1611 1626 1641 1656 1689 1704 1719 1734 1749 1764 1779 1794 1809 1823 0
-1598 4828 0
-1612 4828 0
-1627 4828 0
-1642 4828 0
-1657 4828 0
-1705 4828 0
-1720 4828 0
-1735 4828 0
-1750 4828 0
-1765 4828 0
-1780 4828 0
-1795 4828 0
-1810 4828 0
-1824 4828 0
-4828 1598 1612 1627 1642 1657 1705 1720 1735 1750 1765 1780 1795 1810 1824 0
-1599 4829 0
-1613 4829 0
-1628 4829 0
-1643 4829 0
-1658 4829 0
-1721 4829 0
-1736 4829 0
-1751 4829 0
-1766 4829 0
-1781 4829 0
-1796 4829 0
-1811 4829 0
-1825 4829 0
-4829 1599 1613 1628 1643 1658 1721 1736 1751 1766 1781 1796 1811 1825 0
-1600 4830 0
-1614 4830 0
-1629 4830 0
-1644 4830 0
-1659 4830 0
-1674 4830 0
-1737 4830 0
-1752 4830 0
-1767 4830 0
-1782 4830 0
-1797 4830 0
-1812 4830 0
-1826 4830 0
-4830 1600 1614 1629 1644 1659 1674 1737 1752 1767 1782 1797 1812 1826 0
-1601 4831 0
-1615 4831 0
-1630 4831 0
-1645 4831 0
-1660 4831 0
-1675 4831 0
-1690 4831 0
-1753 4831 0
-1768 4831 0
-1783 4831 0
-1798 4831 0
-1813 4831 0
-1827 4831 0
-4831 1601 1615 1630 1645 1660 1675 1690 1753 1768 1783 1798 1813 1827 0
-1602 4832 0
-1616 4832 0
-1631 4832 0
-1646 4832 0
-1661 4832 0
-1676 4832 0
-1691 4832 0
-1706 4832 0
-1769 4832 0
-1784 4832 0
-1799 4832 0
-1814 4832 0
-1828 4832 0
-4832 1602 1616 1631 1646 1661 1676 1691 1706 1769 1784 1799 1814 1828 0
-1603 4833 0
-1617 4833 0
-1632 4833 0
-1647 4833 0
-1662 4833 0
-1677 4833 0
-1692 4833 0
-1707 4833 0
-1722 4833 0
-1785 4833 0
-1800 4833 0
-1815 4833 0
-1829 4833 0
-4833 1603 1617 1632 1647 1662 1677 1692 1707 1722 1785 1800 1815 1829 0
-1604 4834 0
-1618 4834 0
-1633 4834 0
-1648 4834 0
-1663 4834 0
-1678 4834 0
-1693 4834 0
-1708 4834 0
-1723 4834 0
-1738 4834 0
-1801 4834 0
-1816 4834 0
-1830 4834 0
-4834 1604 1618 1633 1648 1663 1678 1693 1708 1723 1738 1801 1816 1830 0
-1605 4835 0
-1619 4835 0
-1634 4835 0
-1649 4835 0
-1664 4835 0
-1679 4835 0
-1694 4835 0
-1709 4835 0
-1724 4835 0
-1739 4835 0
-1754 4835 0
-1817 4835 0
-1831 4835 0
-4835 1605 1619 1634 1649 1664 1679 1694 1709 1724 1739 1754 1817 1831 0
-1606 4836 0
-1620 4836 0
-1635 4836 0
-1650 4836 0
-1665 4836 0
-1680 4836 0
-1695 4836 0
-1710 4836 0
-1725 4836 0
-1740 4836 0
-1755 4836 0
-1770 4836 0
-1832 4836 0
-4836 1606 1620 1635 1650 1665 1680 1695 1710 1725 1740 1755 1770 1832 0
-1607 4837 0
-1621 4837 0
-1636 4837 0
-1651 4837 0
-1666 4837 0
-1681 4837 0
-1696 4837 0
-1711 4837 0
-1726 4837 0
-1741 4837 0
-1756 4837 0
-1771 4837 0
-1786 4837 0
-4837 1607 1621 1636 1651 1666 1681 1696 1711 1726 1741 1756 1771 1786 0
-1622 4838 0
-1637 4838 0
-1652 4838 0
-1667 4838 0
-1682 4838 0
-1697 4838 0
-1712 4838 0
-1727 4838 0
-1742 4838 0
-1757 4838 0
-1772 4838 0
-1787 4838 0
-1802 4838 0
-4838 1622 1637 1652 1667 1682 1697 1712 1727 1742 1757 1772 1787 1802 0
-1863 4839 0
-1878 4839 0
-1893 4839 0
-1908 4839 0
-1923 4839 0
-1938 4839 0
-1953 4839 0
-1968 4839 0
-1983 4839 0
-1998 4839 0
-2013 4839 0
-2028 4839 0
-2043 4839 0
-4839 1863 1878 1893 1908 1923 1938 1953 1968 1983 1998 2013 2028 2043 0
-1879 4840 0
-1894 4840 0
-1909 4840 0
-1924 4840 0
-1939 4840 0
-1954 4840 0
-1969 4840 0
-1984 4840 0
-1999 4840 0
-2014 4840 0
-2029 4840 0
-2044 4840 0
-2058 4840 0
-4840 1879 1894 1909 1924 1939 1954 1969 1984 1999 2014 2029 2044 2058 0
-1833 4841 0
-1895 4841 0
-1910 4841 0
-1925 4841 0
-1940 4841 0
-1955 4841 0
-1970 4841 0
-1985 4841 0
-2000 4841 0
-2015 4841 0
-2030 4841 0
-2045 4841 0
-2059 4841 0
-4841 1833 1895 1910 1925 1940 1955 1970 1985 2000 2015 2030 2045 2059 0
-1834 4842 0
-1848 4842 0
-1911 4842 0
-1926 4842 0
-1941 4842 0
-1956 4842 0
-1971 4842 0
-1986 4842 0
-2001 4842 0
-2016 4842 0
-2031 4842 0
-2046 4842 0
-2060 4842 0
-4842 1834 1848 1911 1926 1941 1956 1971 1986 2001 2016 2031 2046 2060 0
-1835 4843 0
-1849 4843 0
-1864 4843 0
-1927 4843 0
-1942 4843 0
-1957 4843 0
-1972 4843 0
-1987 4843 0
-2002 4843 0
-2017 4843 0
-2032 4843 0
-2047 4843 0
-2061 4843 0
-4843 1835 1849 1864 1927 1942 1957 1972 1987 2002 2017 2032 2047 2061 0
-1836 4844 0
-1850 4844 0
-1865 4844 0
-1880 4844 0
-1928 4844 0
-1943 4844 0
-1958 4844 0
-1973 4844 0
-1988 4844 0
-2003 4844 0
-2018 4844 0
-2033 4844 0
-2048 4844 0
-2062 4844 0
-4844 1836 1850 1865 1880 1928 1943 1958 1973 1988 2003 2018 2033 2048 2062 0
-1837 4845 0
-1851 4845 0
-1866 4845 0
-1881 4845 0
-1896 4845 0
-1929 4845 0
-1944 4845 0
-1959 4845 0
-1974 4845 0
-1989 4845 0
-2004 4845 0
-2019 4845 0
-2034 4845 0
-2049 4845 0
-2063 4845 0
-4845 1837 1851 1866 1881 1896 1929 1944 1959 1974 1989 2004 2019 2034 2049 2063 0
-1838 4846 0
-1852 4846 0
-1867 4846 0
-1882 4846 0
-1897 4846 0
-1912 4846 0
-1945 4846 0
-1960 4846 0
-1975 4846 0
-1990 4846 0
-2005 4846 0
-2020 4846 0
-2035 4846 0
-2050 4846 0
-2064 4846 0
-4846 1838 1852 1867 1882 1897 1912 1945 1960 1975 1990 2005 2020 2035 2050 2064 0
-1839 4847 0
-1853 4847 0
-1868 4847 0
-1883 4847 0
-1898 4847 0
-1913 4847 0
-1961 4847 0
-1976 4847 0
-1991 4847 0
-2006 4847 0
-2021 4847 0
-2036 4847 0
-2051 4847 0
-2065 4847 0
-4847 1839 1853 1868 1883 1898 1913 1961 1976 1991 2006 2021 2036 2051 2065 0
-1840 4848 0
-1854 4848 0
-1869 4848 0
-1884 4848 0
-1899 4848 0
-1914 4848 0
-1977 4848 0
-1992 4848 0
-2007 4848 0
-2022 4848 0
-2037 4848 0
-2052 4848 0
-2066 4848 0
-4848 1840 1854 1869 1884 1899 1914 1977 1992 2007 2022 2037 2052 2066 0
-1841 4849 0
-1855 4849 0
-1870 4849 0
-1885 4849 0
-1900 4849 0
-1915 4849 0
-1930 4849 0
-1993 4849 0
-2008 4849 0
-2023 4849 0
-2038 4849 0
-2053 4849 0
-2067 4849 0
-4849 1841 1855 1870 1885 1900 1915 1930 1993 2008 2023 2038 2053 2067 0
-1842 4850 0
-1856 4850 0
-1871 4850 0
-1886 4850 0
-1901 4850 0
-1916 4850 0
-1931 4850 0
-1946 4850 0
-2009 4850 0
-2024 4850 0
-2039 4850 0
-2054 4850 0
-2068 4850 0
-4850 1842 1856 1871 1886 1901 1916 1931 1946 2009 2024 2039 2054 2068 0
-1843 4851 0
-1857 4851 0
-1872 4851 0
-1887 4851 0
-1902 4851 0
-1917 4851 0
-1932 4851 0
-1947 4851 0
-1962 4851 0
-2025 4851 0
-2040 4851 0
-2055 4851 0
-2069 4851 0
-4851 1843 1857 1872 1887 1902 1917 1932 1947 1962 2025 2040 2055 2069 0
-1844 4852 0
-1858 4852 0
-1873 4852 0
-1888 4852 0
-1903 4852 0
-1918 4852 0
-1933 4852 0
-1948 4852 0
-1963 4852 0
-1978 4852 0
-2041 4852 0
-2056 4852 0
-2070 4852 0
-4852 1844 1858 1873 1888 1903 1918 1933 1948 1963 1978 2041 2056 2070 0
-1845 4853 0
-1859 4853 0
-1874 4853 0
-1889 4853 0
-1904 4853 0
-1919 4853 0
-1934 4853 0
-1949 4853 0
-1964 4853 0
-1979 4853 0
-1994 4853 0
-2057 4853 0
-2071 4853 0
-4853 1845 1859 1874 1889 1904 1919 1934 1949 1964 1979 1994 2057 2071 0
-1846 4854 0
-1860 4854 0
-1875 4854 0
-1890 4854 0
-1905 4854 0
-1920 4854 0
-1935 4854 0
-1950 4854 0
-1965 4854 0
-1980 4854 0
-1995 4854 0
-2010 4854 0
-2072 4854 0
-4854 1846 1860 1875 1890 1905 1920 1935 1950 1965 1980 1995 2010 2072 0
-1847 4855 0
-1861 4855 0
-1876 4855 0
-1891 4855 0
-1906 4855 0
-1921 4855 0
-1936 4855 0
-1951 4855 0
-1966 4855 0
-1981 4855 0
-1996 4855 0
-2011 4855 0
-2026 4855 0
-4855 1847 1861 1876 1891 1906 1921 1936 1951 1966 1981 1996 2011 2026 0
-1862 4856 0
-1877 4856 0
-1892 4856 0
-1907 4856 0
-1922 4856 0
-1937 4856 0
-1952 4856 0
-1967 4856 0
-1982 4856 0
-1997 4856 0
-2012 4856 0
-2027 4856 0
-2042 4856 0
-4856 1862 1877 1892 1907 1922 1937 1952 1967 1982 1997 2012 2027 2042 0
-2103 4857 0
-2118 4857 0
-2133 4857 0
-2148 4857 0
-2163 4857 0
-2178 4857 0
-2193 4857 0
-2208 4857 0
-2223 4857 0
-2238 4857 0
-2253 4857 0
-2268 4857 0
-2283 4857 0
-4857 2103 2118 2133 2148 2163 2178 2193 2208 2223 2238 2253 2268 2283 0
-2119 4858 0
-2134 4858 0
-2149 4858 0
-2164 4858 0
-2179 4858 0
-2194 4858 0
-2209 4858 0
-2224 4858 0
-2239 4858 0
-2254 4858 0
-2269 4858 0
-2284 4858 0
-2298 4858 0
-4858 2119 2134 2149 2164 2179 2194 2209 2224 2239 2254 2269 2284 2298 0
-2073 4859 0
-2135 4859 0
-2150 4859 0
-2165 4859 0
-2180 4859 0
-2195 4859 0
-2210 4859 0
-2225 4859 0
-2240 4859 0
-2255 4859 0
-2270 4859 0
-2285 4859 0
-2299 4859 0
-4859 2073 2135 2150 2165 2180 2195 2210 2225 2240 2255 2270 2285 2299 0
-2074 4860 0
-2088 4860 0
-2151 4860 0
-2166 4860 0
-2181 4860 0
-2196 4860 0
-2211 4860 0
-2226 4860 0
-2241 4860 0
-2256 4860 0
-2271 4860 0
-2286 4860 0
-2300 4860 0
-4860 2074 2088 2151 2166 2181 2196 2211 2226 2241 2256 2271 2286 2300 0
-2075 4861 0
-2089 4861 0
-2104 4861 0
-2167 4861 0
-2182 4861 0
-2197 4861 0
-2212 4861 0
-2227 4861 0
-2242 4861 0
-2257 4861 0
-2272 4861 0
-2287 4861 0
-2301 4861 0
-4861 2075 2089 2104 2167 2182 2197 2212 2227 2242 2257 2272 2287 2301 0
-2076 4862 0
-2090 4862 0
-2105 4862 0
-2120 4862 0
-2183 4862 0
-2198 4862 0
-2213 4862 0
-2228 4862 0
-2243 4862 0
-2258 4862 0
-2273 4862 0
-2288 4862 0
-2302 4862 0
-4862 2076 2090 2105 2120 2183 2198 2213 2228 2243 2258 2273 2288 2302 0
-2077 4863 0
-2091 4863 0
-2106 4863 0
-2121 4863 0
-2136 4863 0
-2184 4863 0
-2199 4863 0
-2214 4863 0
-2229 4863 0
-2244 4863 0
-2259 4863 0
-2274 4863 0
-2289 4863 0
-2303 4863 0
-4863 2077 2091 2106 2121 2136 2184 2199 2214 2229 2244 2259 2274 2289 2303 0
-2078 4864 0
-2092 4864 0
-2107 4864 0
-2122 4864 0
-2137 4864 0
-2152 4864 0
-2185 4864 0
-2200 4864 0
-2215 4864 0
-2230 4864 0
-2245 4864 0
-2260 4864 0
-2275 4864 0
-2290 4864 0
-2304 4864 0
-4864 2078 2092 2107 2122 2137 2152 2185 2200 2215 2230 2245 2260 2275 2290 2304 0
-2079 4865 0
-2093 4865 0
-2108 4865 0
-2123 4865 0
-2138 4865 0
-2153 4865 0
-2168 4865 0
-2201 4865 0
-2216 4865 0
-2231 4865 0
-2246 4865 0
-2261 4865 0
-2276 4865 0
-2291 4865 0
-2305 4865 0
-4865 2079 2093 2108 2123 2138 2153 2168 2201 2216 2231 2246 2261 2276 2291 2305 0
-2080 4866 0
-2094 4866 0
-2109 4866 0
-2124 4866 0
-2139 4866 0
-2154 4866 0
-2169 4866 0
-2217 4866 0
-2232 4866 0
-2247 4866 0
-2262 4866 0
-2277 4866 0
-2292 4866 0
-2306 4866 0
-4866 2080 2094 2109 2124 2139 2154 2169 2217 2232 2247 2262 2277 2292 2306 0
-2081 4867 0
-2095 4867 0
-2110 4867 0
-2125 4867 0
-2140 4867 0
-2155 4867 0
-2170 4867 0
-2233 4867 0
-2248 4867 0
-2263 4867 0
-2278 4867 0
-2293 4867 0
-2307 4867 0
-4867 2081 2095 2110 2125 2140 2155 2170 2233 2248 2263 2278 2293 2307 0
-2082 4868 0
-2096 4868 0
-2111 4868 0
-2126 4868 0
-2141 4868 0
-2156 4868 0
-2171 4868 0
-2186 4868 0
-2249 4868 0
-2264 4868 0
-2279 4868 0
-2294 4868 0
-2308 4868 0
-4868 2082 2096 2111 2126 2141 2156 2171 2186 2249 2264 2279 2294 2308 0
-2083 4869 0
-2097 4869 0
-2112 4869 0
-2127 4869 0
-2142 4869 0
-2157 4869 0
-2172 4869 0
-2187 4869 0
-2202 4869 0
-2265 4869 0
-2280 4869 0
-2295 4869 0
-2309 4869 0
-4869 2083 2097 2112 2127 2142 2157 2172 2187 2202 2265 2280 2295 2309 0
-2084 4870 0
-2098 4870 0
-2113 4870 0
-2128 4870 0
-2143 4870 0
-2158 4870 0
-2173 4870 0
-2188 4870 0
-2203 4870 0
-2218 4870 0
-2281 4870 0
-2296 4870 0
-2310 4870 0
-4870 2084 2098 2113 2128 2143 2158 2173 2188 2203 2218 2281 2296 2310 0
-2085 4871 0
-2099 4871 0
-2114 4871 0
-2129 4871 0
-2144 4871 0
-2159 4871 0
-2174 4871 0
-2189 4871 0
-2204 4871 0
-2219 4871 0
-2234 4871 0
-2297 4871 0
-2311 4871 0
-4871 2085 2099 2114 2129 2144 2159 2174 2189 2204 2219 2234 2297 2311 0
-2086 4872 0
-2100 4872 0
-2115 4872 0
-2130 4872 0
-2145 4872 0
-2160 4872 0
-2175 4872 0
-2190 4872 0
-2205 4872 0
-2220 4872 0
-2235 4872 0
-2250 4872 0
-2312 4872 0
-4872 2086 2100 2115 2130 2145 2160 2175 2190 2205 2220 2235 2250 2312 0
-2087 4873 0
-2101 4873 0
-2116 4873 0
-2131 4873 0
-2146 4873 0
-2161 4873 0
-2176 4873 0
-2191 4873 0
-2206 4873 0
-2221 4873 0
-2236 4873 0
-2251 4873 0
-2266 4873 0
-4873 2087 2101 2116 2131 2146 2161 2176 2191 2206 2221 2236 2251 2266 0
-2102 4874 0
-2117 4874 0
-2132 4874 0
-2147 4874 0
-2162 4874 0
-2177 4874 0
-2192 4874 0
-2207 4874 0
-2222 4874 0
-2237 4874 0
-2252 4874 0
-2267 4874 0
-2282 4874 0
-4874 2102 2117 2132 2147 2162 2177 2192 2207 2222 2237 2252 2267 2282 0
-2343 4875 0
-2358 4875 0
-2373 4875 0
-2388 4875 0
-2403 4875 0
-2418 4875 0
-2433 4875 0
-2448 4875 0
-2463 4875 0
-2478 4875 0
-2493 4875 0
-2508 4875 0
-2523 4875 0
-4875 2343 2358 2373 2388 2403 2418 2433 2448 2463 2478 2493 2508 2523 0
-2359 4876 0
-2374 4876 0
-2389 4876 0
-2404 4876 0
-2419 4876 0
-2434 4876 0
-2449 4876 0
-2464 4876 0
-2479 4876 0
-2494 4876 0
-2509 4876 0
-2524 4876 0
-2538 4876 0
-4876 2359 2374 2389 2404 2419 2434 2449 2464 2479 2494 2509 2524 2538 0
-2313 4877 0
-2375 4877 0
-2390 4877 0
-2405 4877 0
-2420 4877 0
-2435 4877 0
-2450 4877 0
-2465 4877 0
-2480 4877 0
-2495 4877 0
-2510 4877 0
-2525 4877 0
-2539 4877 0
-4877 2313 2375 2390 2405 2420 2435 2450 2465 2480 2495 2510 2525 2539 0
-2314 4878 0
-2328 4878 0
-2391 4878 0
-2406 4878 0
-2421 4878 0
-2436 4878 0
-2451 4878 0
-2466 4878 0
-2481 4878 0
-2496 4878 0
-2511 4878 0
-2526 4878 0
-2540 4878 0
-4878 2314 2328 2391 2406 2421 2436 2451 2466 2481 2496 2511 2526 2540 0
-2315 4879 0
-2329 4879 0
-2344 4879 0
-2407 4879 0
-2422 4879 0
-2437 4879 0
-2452 4879 0
-2467 4879 0
-2482 4879 0
-2497 4879 0
-2512 4879 0
-2527 4879 0
-2541 4879 0
-4879 2315 2329 2344 2407 2422 2437 2452 2467 2482 2497 2512 2527 2541 0
-2316 4880 0
-2330 4880 0
-2345 4880 0
-2360 4880 0
-2423 4880 0
-2438 4880 0
-2453 4880 0
-2468 4880 0
-2483 4880 0
-2498 4880 0
-2513 4880 0
-2528 4880 0
-2542 4880 0
-4880 2316 2330 2345 2360 2423 2438 2453 2468 2483 2498 2513 2528 2542 0
-2317 4881 0
-2331 4881 0
-2346 4881 0
-2361 4881 0
-2376 4881 0
-2439 4881 0
-2454 4881 0
-2469 4881 0
-2484 4881 0
-2499 4881 0
-2514 4881 0
-2529 4881 0
-2543 4881 0
-4881 2317 2331 2346 2361 2376 2439 2454 2469 2484 2499 2514 2529 2543 0
-2318 4882 0
-2332 4882 0
-2347 4882 0
-2362 4882 0
-2377 4882 0
-2392 4882 0
-2440 4882 0
-2455 4882 0
-2470 4882 0
-2485 4882 0
-2500 4882 0
-2515 4882 0
-2530 4882 0
-2544 4882 0
-4882 2318 2332 2347 2362 2377 2392 2440 2455 2470 2485 2500 2515 2530 2544 0
-2319 4883 0
-2333 4883 0
-2348 4883 0
-2363 4883 0
-2378 4883 0
-2393 4883 0
-2408 4883 0
-2441 4883 0
-2456 4883 0
-2471 4883 0
-2486 4883 0
-2501 4883 0
-2516 4883 0
-2531 4883 0
-2545 4883 0
-4883 2319 2333 2348 2363 2378 2393 2408 2441 2456 2471 2486 2501 2516 2531 2545 0
-2320 4884 0
-2334 4884 0
-2349 4884 0
-2364 4884 0
-2379 4884 0
-2394 4884 0
-2409 4884 0
-2424 4884 0
-2457 4884 0
-2472 4884 0
-2487 4884 0
-2502 4884 0
-2517 4884 0
-2532 4884 0
-2546 4884 0
-4884 2320 2334 2349 2364 2379 2394 2409 2424 2457 2472 2487 2502 2517 2532 2546 0
-2321 4885 0
-2335 4885 0
-2350 4885 0
-2365 4885 0
-2380 4885 0
-2395 4885 0
-2410 4885 0
-2425 4885 0
-2473 4885 0
-2488 4885 0
-2503 4885 0
-2518 4885 0
-2533 4885 0
-2547 4885 0
-4885 2321 2335 2350 2365 2380 2395 2410 2425 2473 2488 2503 2518 2533 2547 0
-2322 4886 0
-2336 4886 0
-2351 4886 0
-2366 4886 0
-2381 4886 0
-2396 4886 0
-2411 4886 0
-2426 4886 0
-2489 4886 0
-2504 4886 0
-2519 4886 0
-2534 4886 0
-2548 4886 0
-4886 2322 2336 2351 2366 2381 2396 2411 2426 2489 2504 2519 2534 2548 0
-2323 4887 0
-2337 4887 0
-2352 4887 0
-2367 4887 0
-2382 4887 0
-2397 4887 0
-2412 4887 0
-2427 4887 0
-2442 4887 0
-2505 4887 0
-2520 4887 0
-2535 4887 0
-2549 4887 0
-4887 2323 2337 2352 2367 2382 2397 2412 2427 2442 2505 2520 2535 2549 0
-2324 4888 0
-2338 4888 0
-2353 4888 0
-2368 4888 0
-2383 4888 0
-2398 4888 0
-2413 4888 0
-2428 4888 0
-2443 4888 0
-2458 4888 0
-2521 4888 0
-2536 4888 0
-2550 4888 0
-4888 2324 2338 2353 2368 2383 2398 2413 2428 2443 2458 2521 2536 2550 0
-2325 4889 0
-2339 4889 0
-2354 4889 0
-2369 4889 0
-2384 4889 0
-2399 4889 0
-2414 4889 0
-2429 4889 0
-2444 4889 0
-2459 4889 0
-2474 4889 0
-2537 4889 0
-2551 4889 0
-4889 2325 2339 2354 2369 2384 2399 2414 2429 2444 2459 2474 2537 2551 0
-2326 4890 0
-2340 4890 0
-2355 4890 0
-2370 4890 0
-2385 4890 0
-2400 4890 0
-2415 4890 0
-2430 4890 0
-2445 4890 0
-2460 4890 0
-2475 4890 0
-2490 4890 0
-2552 4890 0
-4890 2326 2340 2355 2370 2385 2400 2415 2430 2445 2460 2475 2490 2552 0
-2327 4891 0
-2341 4891 0
-2356 4891 0
-2371 4891 0
-2386 4891 0
-2401 4891 0
-2416 4891 0
-2431 4891 0
-2446 4891 0
-2461 4891 0
-2476 4891 0
-2491 4891 0
-2506 4891 0
-4891 2327 2341 2356 2371 2386 2401 2416 2431 2446 2461 2476 2491 2506 0
-2342 4892 0
-2357 4892 0
-2372 4892 0
-2387 4892 0
-2402 4892 0
-2417 4892 0
-2432 4892 0
-2447 4892 0
-2462 4892 0
-2477 4892 0
-2492 4892 0
-2507 4892 0
-2522 4892 0
-4892 2342 2357 2372 2387 2402 2417 2432 2447 2462 2477 2492 2507 2522 0
-2583 4893 0
-2598 4893 0
-2613 4893 0
-2628 4893 0
-2643 4893 0
-2658 4893 0
-2673 4893 0
-2688 4893 0
-2703 4893 0
-2718 4893 0
-2733 4893 0
-2748 4893 0
-2763 4893 0
-4893 2583 2598 2613 2628 2643 2658 2673 2688 2703 2718 2733 2748 2763 0
-2599 4894 0
-2614 4894 0
-2629 4894 0
-2644 4894 0
-2659 4894 0
-2674 4894 0
-2689 4894 0
-2704 4894 0
-2719 4894 0
-2734 4894 0
-2749 4894 0
-2764 4894 0
-2778 4894 0
-4894 2599 2614 2629 2644 2659 2674 2689 2704 2719 2734 2749 2764 2778 0
-2553 4895 0
-2615 4895 0
-2630 4895 0
-2645 4895 0
-2660 4895 0
-2675 4895 0
-2690 4895 0
-2705 4895 0
-2720 4895 0
-2735 4895 0
-2750 4895 0
-2765 4895 0
-2779 4895 0
-4895 2553 2615 2630 2645 2660 2675 2690 2705 2720 2735 2750 2765 2779 0
-2554 4896 0
-2568 4896 0
-2631 4896 0
-2646 4896 0
-2661 4896 0
-2676 4896 0
-2691 4896 0
-2706 4896 0
-2721 4896 0
-2736 4896 0
-2751 4896 0
-2766 4896 0
-2780 4896 0
-4896 2554 2568 2631 2646 2661 2676 2691 2706 2721 2736 2751 2766 2780 0
-2555 4897 0
-2569 4897 0
-2584 4897 0
-2647 4897 0
-2662 4897 0
-2677 4897 0
-2692 4897 0
-2707 4897 0
-2722 4897 0
-2737 4897 0
-2752 4897 0
-2767 4897 0
-2781 4897 0
-4897 2555 2569 2584 2647 2662 2677 2692 2707 2722 2737 2752 2767 2781 0
-2556 4898 0
-2570 4898 0
-2585 4898 0
-2600 4898 0
-2663 4898 0
-2678 4898 0
-2693 4898 0
-2708 4898 0
-2723 4898 0
-2738 4898 0
-2753 4898 0
-2768 4898 0
-2782 4898 0
-4898 2556 2570 2585 2600 2663 2678 2693 2708 2723 2738 2753 2768 2782 0
-2557 4899 0
-2571 4899 0
-2586 4899 0
-2601 4899 0
-2616 4899 0
-2679 4899 0
-2694 4899 0
-2709 4899 0
-2724 4899 0
-2739 4899 0
-2754 4899 0
-2769 4899 0
-2783 4899 0
-4899 2557 2571 2586 2601 2616 2679 2694 2709 2724 2739 2754 2769 2783 0
-2558 4900 0
-2572 4900 0
-2587 4900 0
-2602 4900 0
-2617 4900 0
-2632 4900 0
-2695 4900 0
-2710 4900 0
-2725 4900 0
-2740 4900 0
-2755 4900 0
-2770 4900 0
-2784 4900 0
-4900 2558 2572 2587 2602 2617 2632 2695 2710 2725 2740 2755 2770 2784 0
-2559 4901 0
-2573 4901 0
-2588 4901 0
-2603 4901 0
-2618 4901 0
-2633 4901 0
-2648 4901 0
-2696 4901 0
-2711 4901 0
-2726 4901 0
-2741 4901 0
-2756 4901 0
-2771 4901 0
-2785 4901 0
-4901 2559 2573 2588 2603 2618 2633 2648 2696 2711 2726 2741 2756 2771 2785 0
-2560 4902 0
-2574 4902 0
-2589 4902 0
-2604 4902 0
-2619 4902 0
-2634 4902 0
-2649 4902 0
-2664 4902 0
-2697 4902 0
-2712 4902 0
-2727 4902 0
-2742 4902 0
-2757 4902 0
-2772 4902 0
-2786 4902 0
-4902 2560 2574 2589 2604 2619 2634 2649 2664 2697 2712 2727 2742 2757 2772 2786 0
-2561 4903 0
-2575 4903 0
-2590 4903 0
-2605 4903 0
-2620 4903 0
-2635 4903 0
-2650 4903 0
-2665 4903 0
-2680 4903 0
-2713 4903 0
-2728 4903 0
-2743 4903 0
-2758 4903 0
-2773 4903 0
-2787 4903 0
-4903 2561 2575 2590 2605 2620 2635 2650 2665 2680 2713 2728 2743 2758 2773 2787 0
-2562 4904 0
-2576 4904 0
-2591 4904 0
-2606 4904 0
-2621 4904 0
-2636 4904 0
-2651 4904 0
-2666 4904 0
-2681 4904 0
-2729 4904 0
-2744 4904 0
-2759 4904 0
-2774 4904 0
-2788 4904 0
-4904 2562 2576 2591 2606 2621 2636 2651 2666 2681 2729 2744 2759 2774 2788 0
-2563 4905 0
-2577 4905 0
-2592 4905 0
-2607 4905 0
-2622 4905 0
-2637 4905 0
-2652 4905 0
-2667 4905 0
-2682 4905 0
-2745 4905 0
-2760 4905 0
-2775 4905 0
-2789 4905 0
-4905 2563 2577 2592 2607 2622 2637 2652 2667 2682 2745 2760 2775 2789 0
-2564 4906 0
-2578 4906 0
-2593 4906 0
-2608 4906 0
-2623 4906 0
-2638 4906 0
-2653 4906 0
-2668 4906 0
-2683 4906 0
-2698 4906 0
-2761 4906 0
-2776 4906 0
-2790 4906 0
-4906 2564 2578 2593 2608 2623 2638 2653 2668 2683 2698 2761 2776 2790 0
-2565 4907 0
-2579 4907 0
-2594 4907 0
-2609 4907 0
-2624 4907 0
-2639 4907 0
-2654 4907 0
-2669 4907 0
-2684 4907 0
-2699 4907 0
-2714 4907 0
-2777 4907 0
-2791 4907 0
-4907 2565 2579 2594 2609 2624 2639 2654 2669 2684 2699 2714 2777 2791 0
-2566 4908 0
-2580 4908 0
-2595 4908 0
-2610 4908 0
-2625 4908 0
-2640 4908 0
-2655 4908 0
-2670 4908 0
-2685 4908 0
-2700 4908 0
-2715 4908 0
-2730 4908 0
-2792 4908 0
-4908 2566 2580 2595 2610 2625 2640 2655 2670 2685 2700 2715 2730 2792 0
-2567 4909 0
-2581 4909 0
-2596 4909 0
-2611 4909 0
-2626 4909 0
-2641 4909 0
-2656 4909 0
-2671 4909 0
-2686 4909 0
-2701 4909 0
-2716 4909 0
-2731 4909 0
-2746 4909 0
-4909 2567 2581 2596 2611 2626 2641 2656 2671 2686 2701 2716 2731 2746 0
-2582 4910 0
-2597 4910 0
-2612 4910 0
-2627 4910 0
-2642 4910 0
-2657 4910 0
-2672 4910 0
-2687 4910 0
-2702 4910 0
-2717 4910 0
-2732 4910 0
-2747 4910 0
-2762 4910 0
-4910 2582 2597 2612 2627 2642 2657 2672 2687 2702 2717 2732 2747 2762 0
-2823 4911 0
-2838 4911 0
-2853 4911 0
-2868 4911 0
-2883 4911 0
-2898 4911 0
-2913 4911 0
-2928 4911 0
-2943 4911 0
-2958 4911 0
-2973 4911 0
-2988 4911 0
-3003 4911 0
-4911 2823 2838 2853 2868 2883 2898 2913 2928 2943 2958 2973 2988 3003 0
-2839 4912 0
-2854 4912 0
-2869 4912 0
-2884 4912 0
-2899 4912 0
-2914 4912 0
-2929 4912 0
-2944 4912 0
-2959 4912 0
-2974 4912 0
-2989 4912 0
-3004 4912 0
-3018 4912 0
-4912 2839 2854 2869 2884 2899 2914 2929 2944 2959 2974 2989 3004 3018 0
-2793 4913 0
-2855 4913 0
-2870 4913 0
-2885 4913 0
-2900 4913 0
-2915 4913 0
-2930 4913 0
-2945 4913 0
-2960 4913 0
-2975 4913 0
-2990 4913 0
-3005 4913 0
-3019 4913 0
-4913 2793 2855 2870 2885 2900 2915 2930 2945 2960 2975 2990 3005 3019 0
-2794 4914 0
-2808 4914 0
-2871 4914 0
-2886 4914 0
-2901 4914 0
-2916 4914 0
-2931 4914 0
-2946 4914 0
-2961 4914 0
-2976 4914 0
-2991 4914 0
-3006 4914 0
-3020 4914 0
-4914 2794 2808 2871 2886 2901 2916 2931 2946 2961 2976 2991 3006 3020 0
-2795 4915 0
-2809 4915 0
-2824 4915 0
-2887 4915 0
-2902 4915 0
-2917 4915 0
-2932 4915 0
-2947 4915 0
-2962 4915 0
-2977 4915 0
-2992 4915 0
-3007 4915 0
-3021 4915 0
-4915 2795 2809 2824 2887 2902 2917 2932 2947 2962 2977 2992 3007 3021 0
-2796 4916 0
-2810 4916 0
-2825 4916 0
-2840 4916 0
-2903 4916 0
-2918 4916 0
-2933 4916 0
-2948 4916 0
-2963 4916 0
-2978 4916 0
-2993 4916 0
-3008 4916 0
-3022 4916 0
-4916 2796 2810 2825 2840 2903 2918 2933 2948 2963 2978 2993 3008 3022 0
-2797 4917 0
-2811 4917 0
-2826 4917 0
-2841 4917 0
-2856 4917 0
-2919 4917 0
-2934 4917 0
-2949 4917 0
-2964 4917 0
-2979 4917 0
-2994 4917 0
-3009 4917 0
-3023 4917 0
-4917 2797 2811 2826 2841 2856 2919 2934 2949 2964 2979 2994 3009 3023 0
-2798 4918 0
-2812 4918 0
-2827 4918 0
-2842 4918 0
-2857 4918 0
-2872 4918 0
-2935 4918 0
-2950 4918 0
-2965 4918 0
-2980 4918 0
-2995 4918 0
-3010 4918 0
-3024 4918 0
-4918 2798 2812 2827 2842 2857 2872 2935 2950 2965 2980 2995 3010 3024 0
-2799 4919 0
-2813 4919 0
-2828 4919 0
-2843 4919 0
-2858 4919 0
-2873 4919 0
-2888 4919 0
-2951 4919 0
-2966 4919 0
-2981 4919 0
-2996 4919 0
-3011 4919 0
-3025 4919 0
-4919 2799 2813 2828 2843 2858 2873 2888 2951 2966 2981 2996 3011 3025 0
-2800 4920 0
-2814 4920 0
-2829 4920 0
-2844 4920 0
-2859 4920 0
-2874 4920 0
-2889 4920 0
-2904 4920 0
-2952 4920 0
-2967 4920 0
-2982 4920 0
-2997 4920 0
-3012 4920 0
-3026 4920 0
-4920 2800 2814 2829 2844 2859 2874 2889 2904 2952 2967 2982 2997 3012 3026 0
-2801 4921 0
-2815 4921 0
-2830 4921 0
-2845 4921 0
-2860 4921 0
-2875 4921 0
-2890 4921 0
-2905 4921 0
-2920 4921 0
-2953 4921 0
-2968 4921 0
-2983 4921 0
-2998 4921 0
-3013 4921 0
-3027 4921 0
-4921 2801 2815 2830 2845 2860 2875 2890 2905 2920 2953 2968 2983 2998 3013 3027 0
-2802 4922 0
-2816 4922 0
-2831 4922 0
-2846 4922 0
-2861 4922 0
-2876 4922 0
-2891 4922 0
-2906 4922 0
-2921 4922 0
-2936 4922 0
-2969 4922 0
-2984 4922 0
-2999 4922 0
-3014 4922 0
-3028 4922 0
-4922 2802 2816 2831 2846 2861 2876 2891 2906 2921 2936 2969 2984 2999 3014 3028 0
-2803 4923 0
-2817 4923 0
-2832 4923 0
-2847 4923 0
-2862 4923 0
-2877 4923 0
-2892 4923 0
-2907 4923 0
-2922 4923 0
-2937 4923 0
-2985 4923 0
-3000 4923 0
-3015 4923 0
-3029 4923 0
-4923 2803 2817 2832 2847 2862 2877 2892 2907 2922 2937 2985 3000 3015 3029 0
-2804 4924 0
-2818 4924 0
-2833 4924 0
-2848 4924 0
-2863 4924 0
-2878 4924 0
-2893 4924 0
-2908 4924 0
-2923 4924 0
-2938 4924 0
-3001 4924 0
-3016 4924 0
-3030 4924 0
-4924 2804 2818 2833 2848 2863 2878 2893 2908 2923 2938 3001 3016 3030 0
-2805 4925 0
-2819 4925 0
-2834 4925 0
-2849 4925 0
-2864 4925 0
-2879 4925 0
-2894 4925 0
-2909 4925 0
-2924 4925 0
-2939 4925 0
-2954 4925 0
-3017 4925 0
-3031 4925 0
-4925 2805 2819 2834 2849 2864 2879 2894 2909 2924 2939 2954 3017 3031 0
-2806 4926 0
-2820 4926 0
-2835 4926 0
-2850 4926 0
-2865 4926 0
-2880 4926 0
-2895 4926 0
-2910 4926 0
-2925 4926 0
-2940 4926 0
-2955 4926 0
-2970 4926 0
-3032 4926 0
-4926 2806 2820 2835 2850 2865 2880 2895 2910 2925 2940 2955 2970 3032 0
-2807 4927 0
-2821 4927 0
-2836 4927 0
-2851 4927 0
-2866 4927 0
-2881 4927 0
-2896 4927 0
-2911 4927 0
-2926 4927 0
-2941 4927 0
-2956 4927 0
-2971 4927 0
-2986 4927 0
-4927 2807 2821 2836 2851 2866 2881 2896 2911 2926 2941 2956 2971 2986 0
-2822 4928 0
-2837 4928 0
-2852 4928 0
-2867 4928 0
-2882 4928 0
-2897 4928 0
-2912 4928 0
-2927 4928 0
-2942 4928 0
-2957 4928 0
-2972 4928 0
-2987 4928 0
-3002 4928 0
-4928 2822 2837 2852 2867 2882 2897 2912 2927 2942 2957 2972 2987 3002 0
-3063 4929 0
-3078 4929 0
-3093 4929 0
-3108 4929 0
-3123 4929 0
-3138 4929 0
-3153 4929 0
-3168 4929 0
-3183 4929 0
-3198 4929 0
-3213 4929 0
-3228 4929 0
-3243 4929 0
-4929 3063 3078 3093 3108 3123 3138 3153 3168 3183 3198 3213 3228 3243 0
-3079 4930 0
-3094 4930 0
-3109 4930 0
-3124 4930 0
-3139 4930 0
-3154 4930 0
-3169 4930 0
-3184 4930 0
-3199 4930 0
-3214 4930 0
-3229 4930 0
-3244 4930 0
-3258 4930 0
-4930 3079 3094 3109 3124 3139 3154 3169 3184 3199 3214 3229 3244 3258 0
-3033 4931 0
-3095 4931 0
-3110 4931 0
-3125 4931 0
-3140 4931 0
-3155 4931 0
-3170 4931 0
-3185 4931 0
-3200 4931 0
-3215 4931 0
-3230 4931 0
-3245 4931 0
-3259 4931 0
-4931 3033 3095 3110 3125 3140 3155 3170 3185 3200 3215 3230 3245 3259 0
-3034 4932 0
-3048 4932 0
-3111 4932 0
-3126 4932 0
-3141 4932 0
-3156 4932 0
-3171 4932 0
-3186 4932 0
-3201 4932 0
-3216 4932 0
-3231 4932 0
-3246 4932 0
-3260 4932 0
-4932 3034 3048 3111 3126 3141 3156 3171 3186 3201 3216 3231 3246 3260 0
-3035 4933 0
-3049 4933 0
-3064 4933 0
-3127 4933 0
-3142 4933 0
-3157 4933 0
-3172 4933 0
-3187 4933 0
-3202 4933 0
-3217 4933 0
-3232 4933 0
-3247 4933 0
-3261 4933 0
-4933 3035 3049 3064 3127 3142 3157 3172 3187 3202 3217 3232 3247 3261 0
-3036 4934 0
-3050 4934 0
-3065 4934 0
-3080 4934 0
-3143 4934 0
-3158 4934 0
-3173 4934 0
-3188 4934 0
-3203 4934 0
-3218 4934 0
-3233 4934 0
-3248 4934 0
-3262 4934 0
-4934 3036 3050 3065 3080 3143 3158 3173 3188 3203 3218 3233 3248 3262 0
-3037 4935 0
-3051 4935 0
-3066 4935 0
-3081 4935 0
-3096 4935 0
-3159 4935 0
-3174 4935 0
-3189 4935 0
-3204 4935 0
-3219 4935 0
-3234 4935 0
-3249 4935 0
-3263 4935 0
-4935 3037 3051 3066 3081 3096 3159 3174 3189 3204 3219 3234 3249 3263 0
-3038 4936 0
-3052 4936 0
-3067 4936 0
-3082 4936 0
-3097 4936 0
-3112 4936 0
-3175 4936 0
-3190 4936 0
-3205 4936 0
-3220 4936 0
-3235 4936 0
-3250 4936 0
-3264 4936 0
-4936 3038 3052 3067 3082 3097 3112 3175 3190 3205 3220 3235 3250 3264 0
-3039 4937 0
-3053 4937 0
-3068 4937 0
-3083 4937 0
-3098 4937 0
-3113 4937 0
-3128 4937 0
-3191 4937 0
-3206 4937 0
-3221 4937 0
-3236 4937 0
-3251 4937 0
-3265 4937 0
-4937 3039 3053 3068 3083 3098 3113 3128 3191 3206 3221 3236 3251 3265 0
-3040 4938 0
-3054 4938 0
-3069 4938 0
-3084 4938 0
-3099 4938 0
-3114 4938 0
-3129 4938 0
-3144 4938 0
-3207 4938 0
-3222 4938 0
-3237 4938 0
-3252 4938 0
-3266 4938 0
-4938 3040 3054 3069 3084 3099 3114 3129 3144 3207 3222 3237 3252 3266 0
-3041 4939 0
-3055 4939 0
-3070 4939 0
-3085 4939 0
-3100 4939 0
-3115 4939 0
-3130 4939 0
-3145 4939 0
-3160 4939 0
-3208 4939 0
-3223 4939 0
-3238 4939 0
-3253 4939 0
-3267 4939 0
-4939 3041 3055 3070 3085 3100 3115 3130 3145 3160 3208 3223 3238 3253 3267 0
-3042 4940 0
-3056 4940 0
-3071 4940 0
-3086 4940 0
-3101 4940 0
-3116 4940 0
-3131 4940 0
-3146 4940 0
-3161 4940 0
-3176 4940 0
-3209 4940 0
-3224 4940 0
-3239 4940 0
-3254 4940 0
-3268 4940 0
-4940 3042 3056 3071 3086 3101 3116 3131 3146 3161 3176 3209 3224 3239 3254 3268 0
-3043 4941 0
-3057 4941 0
-3072 4941 0
-3087 4941 0
-3102 4941 0
-3117 4941 0
-3132 4941 0
-3147 4941 0
-3162 4941 0
-3177 4941 0
-3192 4941 0
-3225 4941 0
-3240 4941 0
-3255 4941 0
-3269 4941 0
-4941 3043 3057 3072 3087 3102 3117 3132 3147 3162 3177 3192 3225 3240 3255 3269 0
-3044 4942 0
-3058 4942 0
-3073 4942 0
-3088 4942 0
-3103 4942 0
-3118 4942 0
-3133 4942 0
-3148 4942 0
-3163 4942 0
-3178 4942 0
-3193 4942 0
-3241 4942 0
-3256 4942 0
-3270 4942 0
-4942 3044 3058 3073 3088 3103 3118 3133 3148 3163 3178 3193 3241 3256 3270 0
-3045 4943 0
-3059 4943 0
-3074 4943 0
-3089 4943 0
-3104 4943 0
-3119 4943 0
-3134 4943 0
-3149 4943 0
-3164 4943 0
-3179 4943 0
-3194 4943 0
-3257 4943 0
-3271 4943 0
-4943 3045 3059 3074 3089 3104 3119 3134 3149 3164 3179 3194 3257 3271 0
-3046 4944 0
-3060 4944 0
-3075 4944 0
-3090 4944 0
-3105 4944 0
-3120 4944 0
-3135 4944 0
-3150 4944 0
-3165 4944 0
-3180 4944 0
-3195 4944 0
-3210 4944 0
-3272 4944 0
-4944 3046 3060 3075 3090 3105 3120 3135 3150 3165 3180 3195 3210 3272 0
-3047 4945 0
-3061 4945 0
-3076 4945 0
-3091 4945 0
-3106 4945 0
-3121 4945 0
-3136 4945 0
-3151 4945 0
-3166 4945 0
-3181 4945 0
-3196 4945 0
-3211 4945 0
-3226 4945 0
-4945 3047 3061 3076 3091 3106 3121 3136 3151 3166 3181 3196 3211 3226 0
-3062 4946 0
-3077 4946 0
-3092 4946 0
-3107 4946 0
-3122 4946 0
-3137 4946 0
-3152 4946 0
-3167 4946 0
-3182 4946 0
-3197 4946 0
-3212 4946 0
-3227 4946 0
-3242 4946 0
-4946 3062 3077 3092 3107 3122 3137 3152 3167 3182 3197 3212 3227 3242 0
-3303 4947 0
-3318 4947 0
-3333 4947 0
-3348 4947 0
-3363 4947 0
-3378 4947 0
-3393 4947 0
-3408 4947 0
-3423 4947 0
-3438 4947 0
-3453 4947 0
-3468 4947 0
-3483 4947 0
-4947 3303 3318 3333 3348 3363 3378 3393 3408 3423 3438 3453 3468 3483 0
-3319 4948 0
-3334 4948 0
-3349 4948 0
-3364 4948 0
-3379 4948 0
-3394 4948 0
-3409 4948 0
-3424 4948 0
-3439 4948 0
-3454 4948 0
-3469 4948 0
-3484 4948 0
-3498 4948 0
-4948 3319 3334 3349 3364 3379 3394 3409 3424 3439 3454 3469 3484 3498 0
-3273 4949 0
-3335 4949 0
-3350 4949 0
-3365 4949 0
-3380 4949 0
-3395 4949 0
-3410 4949 0
-3425 4949 0
-3440 4949 0
-3455 4949 0
-3470 4949 0
-3485 4949 0
-3499 4949 0
-4949 3273 3335 3350 3365 3380 3395 3410 3425 3440 3455 3470 3485 3499 0
-3274 4950 0
-3288 4950 0
-3351 4950 0
-3366 4950 0
-3381 4950 0
-3396 4950 0
-3411 4950 0
-3426 4950 0
-3441 4950 0
-3456 4950 0
-3471 4950 0
-3486 4950 0
-3500 4950 0
-4950 3274 3288 3351 3366 3381 3396 3411 3426 3441 3456 3471 3486 3500 0
-3275 4951 0
-3289 4951 0
-3304 4951 0
-3367 4951 0
-3382 4951 0
-3397 4951 0
-3412 4951 0
-3427 4951 0
-3442 4951 0
-3457 4951 0
-3472 4951 0
-3487 4951 0
-3501 4951 0
-4951 3275 3289 3304 3367 3382 3397 3412 3427 3442 3457 3472 3487 3501 0
-3276 4952 0
-3290 4952 0
-3305 4952 0
-3320 4952 0
-3383 4952 0
-3398 4952 0
-3413 4952 0
-3428 4952 0
-3443 4952 0
-3458 4952 0
-3473 4952 0
-3488 4952 0
-3502 4952 0
-4952 3276 3290 3305 3320 3383 3398 3413 3428 3443 3458 3473 3488 3502 0
-3277 4953 0
-3291 4953 0
-3306 4953 0
-3321 4953 0
-3336 4953 0
-3399 4953 0
-3414 4953 0
-3429 4953 0
-3444 4953 0
-3459 4953 0
-3474 4953 0
-3489 4953 0
-3503 4953 0
-4953 3277 3291 3306 3321 3336 3399 3414 3429 3444 3459 3474 3489 3503 0
-3278 4954 0
-3292 4954 0
-3307 4954 0
-3322 4954 0
-3337 4954 0
-3352 4954 0
-3415 4954 0
-3430 4954 0
-3445 4954 0
-3460 4954 0
-3475 4954 0
-3490 4954 0
-3504 4954 0
-4954 3278 3292 3307 3322 3337 3352 3415 3430 3445 3460 3475 3490 3504 0
-3279 4955 0
-3293 4955 0
-3308 4955 0
-3323 4955 0
-3338 4955 0
-3353 4955 0
-3368 4955 0
-3431 4955 0
-3446 4955 0
-3461 4955 0
-3476 4955 0
-3491 4955 0
-3505 4955 0
-4955 3279 3293 3308 3323 3338 3353 3368 3431 3446 3461 3476 3491 3505 0
-3280 4956 0
-3294 4956 0
-3309 4956 0
-3324 4956 0
-3339 4956 0
-3354 4956 0
-3369 4956 0
-3384 4956 0
-3447 4956 0
-3462 4956 0
-3477 4956 0
-3492 4956 0
-3506 4956 0
-4956 3280 3294 3309 3324 3339 3354 3369 3384 3447 3462 3477 3492 3506 0
-3281 4957 0
-3295 4957 0
-3310 4957 0
-3325 4957 0
-3340 4957 0
-3355 4957 0
-3370 4957 0
-3385 4957 0
-3400 4957 0
-3463 4957 0
-3478 4957 0
-3493 4957 0
-3507 4957 0
-4957 3281 3295 3310 3325 3340 3355 3370 3385 3400 3463 3478 3493 3507 0
-3282 4958 0
-3296 4958 0
-3311 4958 0
-3326 4958 0
-3341 4958 0
-3356 4958 0
-3371 4958 0
-3386 4958 0
-3401 4958 0
-3416 4958 0
-3464 4958 0
-3479 4958 0
-3494 4958 0
-3508 4958 0
-4958 3282 3296 3311 3326 3341 3356 3371 3386 3401 3416 3464 3479 3494 3508 0
-3283 4959 0
-3297 4959 0
-3312 4959 0
-3327 4959 0
-3342 4959 0
-3357 4959 0
-3372 4959 0
-3387 4959 0
-3402 4959 0
-3417 4959 0
-3432 4959 0
-3465 4959 0
-3480 4959 0
-3495 4959 0
-3509 4959 0
-4959 3283 3297 3312 3327 3342 3357 3372 3387 3402 3417 3432 3465 3480 3495 3509 0
-3284 4960 0
-3298 4960 0
-3313 4960 0
-3328 4960 0
-3343 4960 0
-3358 4960 0
-3373 4960 0
-3388 4960 0
-3403 4960 0
-3418 4960 0
-3433 4960 0
-3448 4960 0
-3481 4960 0
-3496 4960 0
-3510 4960 0
-4960 3284 3298 3313 3328 3343 3358 3373 3388 3403 3418 3433 3448 3481 3496 3510 0
-3285 4961 0
-3299 4961 0
-3314 4961 0
-3329 4961 0
-3344 4961 0
-3359 4961 0
-3374 4961 0
-3389 4961 0
-3404 4961 0
-3419 4961 0
-3434 4961 0
-3449 4961 0
-3497 4961 0
-3511 4961 0
-4961 3285 3299 3314 3329 3344 3359 3374 3389 3404 3419 3434 3449 3497 3511 0
-3286 4962 0
-3300 4962 0
-3315 4962 0
-3330 4962 0
-3345 4962 0
-3360 4962 0
-3375 4962 0
-3390 4962 0
-3405 4962 0
-3420 4962 0
-3435 4962 0
-3450 4962 0
-3512 4962 0
-4962 3286 3300 3315 3330 3345 3360 3375 3390 3405 3420 3435 3450 3512 0
-3287 4963 0
-3301 4963 0
-3316 4963 0
-3331 4963 0
-3346 4963 0
-3361 4963 0
-3376 4963 0
-3391 4963 0
-3406 4963 0
-3421 4963 0
-3436 4963 0
-3451 4963 0
-3466 4963 0
-4963 3287 3301 3316 3331 3346 3361 3376 3391 3406 3421 3436 3451 3466 0
-3302 4964 0
-3317 4964 0
-3332 4964 0
-3347 4964 0
-3362 4964 0
-3377 4964 0
-3392 4964 0
-3407 4964 0
-3422 4964 0
-3437 4964 0
-3452 4964 0
-3467 4964 0
-3482 4964 0
-4964 3302 3317 3332 3347 3362 3377 3392 3407 3422 3437 3452 3467 3482 0
-3543 4965 0
-3558 4965 0
-3573 4965 0
-3588 4965 0
-3603 4965 0
-3618 4965 0
-3633 4965 0
-3648 4965 0
-3663 4965 0
-3678 4965 0
-3693 4965 0
-3708 4965 0
-3723 4965 0
-4965 3543 3558 3573 3588 3603 3618 3633 3648 3663 3678 3693 3708 3723 0
-3559 4966 0
-3574 4966 0
-3589 4966 0
-3604 4966 0
-3619 4966 0
-3634 4966 0
-3649 4966 0
-3664 4966 0
-3679 4966 0
-3694 4966 0
-3709 4966 0
-3724 4966 0
-3738 4966 0
-4966 3559 3574 3589 3604 3619 3634 3649 3664 3679 3694 3709 3724 3738 0
-3513 4967 0
-3575 4967 0
-3590 4967 0
-3605 4967 0
-3620 4967 0
-3635 4967 0
-3650 4967 0
-3665 4967 0
-3680 4967 0
-3695 4967 0
-3710 4967 0
-3725 4967 0
-3739 4967 0
-4967 3513 3575 3590 3605 3620 3635 3650 3665 3680 3695 3710 3725 3739 0
-3514 4968 0
-3528 4968 0
-3591 4968 0
-3606 4968 0
-3621 4968 0
-3636 4968 0
-3651 4968 0
-3666 4968 0
-3681 4968 0
-3696 4968 0
-3711 4968 0
-3726 4968 0
-3740 4968 0
-4968 3514 3528 3591 3606 3621 3636 3651 3666 3681 3696 3711 3726 3740 0
-3515 4969 0
-3529 4969 0
-3544 4969 0
-3607 4969 0
-3622 4969 0
-3637 4969 0
-3652 4969 0
-3667 4969 0
-3682 4969 0
-3697 4969 0
-3712 4969 0
-3727 4969 0
-3741 4969 0
-4969 3515 3529 3544 3607 3622 3637 3652 3667 3682 3697 3712 3727 3741 0
-3516 4970 0
-3530 4970 0
-3545 4970 0
-3560 4970 0
-3623 4970 0
-3638 4970 0
-3653 4970 0
-3668 4970 0
-3683 4970 0
-3698 4970 0
-3713 4970 0
-3728 4970 0
-3742 4970 0
-4970 3516 3530 3545 3560 3623 3638 3653 3668 3683 3698 3713 3728 3742 0
-3517 4971 0
-3531 4971 0
-3546 4971 0
-3561 4971 0
-3576 4971 0
-3639 4971 0
-3654 4971 0
-3669 4971 0
-3684 4971 0
-3699 4971 0
-3714 4971 0
-3729 4971 0
-3743 4971 0
-4971 3517 3531 3546 3561 3576 3639 3654 3669 3684 3699 3714 3729 3743 0
-3518 4972 0
-3532 4972 0
-3547 4972 0
-3562 4972 0
-3577 4972 0
-3592 4972 0
-3655 4972 0
-3670 4972 0
-3685 4972 0
-3700 4972 0
-3715 4972 0
-3730 4972 0
-3744 4972 0
-4972 3518 3532 3547 3562 3577 3592 3655 3670 3685 3700 3715 3730 3744 0
-3519 4973 0
-3533 4973 0
-3548 4973 0
-3563 4973 0
-3578 4973 0
-3593 4973 0
-3608 4973 0
-3671 4973 0
-3686 4973 0
-3701 4973 0
-3716 4973 0
-3731 4973 0
-3745 4973 0
-4973 3519 3533 3548 3563 3578 3593 3608 3671 3686 3701 3716 3731 3745 0
-3520 4974 0
-3534 4974 0
-3549 4974 0
-3564 4974 0
-3579 4974 0
-3594 4974 0
-3609 4974 0
-3624 4974 0
-3687 4974 0
-3702 4974 0
-3717 4974 0
-3732 4974 0
-3746 4974 0
-4974 3520 3534 3549 3564 3579 3594 3609 3624 3687 3702 3717 3732 3746 0
-3521 4975 0
-3535 4975 0
-3550 4975 0
-3565 4975 0
-3580 4975 0
-3595 4975 0
-3610 4975 0
-3625 4975 0
-3640 4975 0
-3703 4975 0
-3718 4975 0
-3733 4975 0
-3747 4975 0
-4975 3521 3535 3550 3565 3580 3595 3610 3625 3640 3703 3718 3733 3747 0
-3522 4976 0
-3536 4976 0
-3551 4976 0
-3566 4976 0
-3581 4976 0
-3596 4976 0
-3611 4976 0
-3626 4976 0
-3641 4976 0
-3656 4976 0
-3719 4976 0
-3734 4976 0
-3748 4976 0
-4976 3522 3536 3551 3566 3581 3596 3611 3626 3641 3656 3719 3734 3748 0
-3523 4977 0
-3537 4977 0
-3552 4977 0
-3567 4977 0
-3582 4977 0
-3597 4977 0
-3612 4977 0
-3627 4977 0
-3642 4977 0
-3657 4977 0
-3672 4977 0
-3720 4977 0
-3735 4977 0
-3749 4977 0
-4977 3523 3537 3552 3567 3582 3597 3612 3627 3642 3657 3672 3720 3735 3749 0
-3524 4978 0
-3538 4978 0
-3553 4978 0
-3568 4978 0
-3583 4978 0
-3598 4978 0
-3613 4978 0
-3628 4978 0
-3643 4978 0
-3658 4978 0
-3673 4978 0
-3688 4978 0
-3721 4978 0
-3736 4978 0
-3750 4978 0
-4978 3524 3538 3553 3568 3583 3598 3613 3628 3643 3658 3673 3688 3721 3736 3750 0
-3525 4979 0
-3539 4979 0
-3554 4979 0
-3569 4979 0
-3584 4979 0
-3599 4979 0
-3614 4979 0
-3629 4979 0
-3644 4979 0
-3659 4979 0
-3674 4979 0
-3689 4979 0
-3704 4979 0
-3737 4979 0
-3751 4979 0
-4979 3525 3539 3554 3569 3584 3599 3614 3629 3644 3659 3674 3689 3704 3737 3751 0
-3526 4980 0
-3540 4980 0
-3555 4980 0
-3570 4980 0
-3585 4980 0
-3600 4980 0
-3615 4980 0
-3630 4980 0
-3645 4980 0
-3660 4980 0
-3675 4980 0
-3690 4980 0
-3705 4980 0
-3752 4980 0
-4980 3526 3540 3555 3570 3585 3600 3615 3630 3645 3660 3675 3690 3705 3752 0
-3527 4981 0
-3541 4981 0
-3556 4981 0
-3571 4981 0
-3586 4981 0
-3601 4981 0
-3616 4981 0
-3631 4981 0
-3646 4981 0
-3661 4981 0
-3676 4981 0
-3691 4981 0
-3706 4981 0
-4981 3527 3541 3556 3571 3586 3601 3616 3631 3646 3661 3676 3691 3706 0
-3542 4982 0
-3557 4982 0
-3572 4982 0
-3587 4982 0
-3602 4982 0
-3617 4982 0
-3632 4982 0
-3647 4982 0
-3662 4982 0
-3677 4982 0
-3692 4982 0
-3707 4982 0
-3722 4982 0
-4982 3542 3557 3572 3587 3602 3617 3632 3647 3662 3677 3692 3707 3722 0
-3783 4983 0
-3798 4983 0
-3813 4983 0
-3828 4983 0
-3843 4983 0
-3858 4983 0
-3873 4983 0
-3888 4983 0
-3903 4983 0
-3918 4983 0
-3933 4983 0
-3948 4983 0
-3963 4983 0
-4983 3783 3798 3813 3828 3843 3858 3873 3888 3903 3918 3933 3948 3963 0
-3799 4984 0
-3814 4984 0
-3829 4984 0
-3844 4984 0
-3859 4984 0
-3874 4984 0
-3889 4984 0
-3904 4984 0
-3919 4984 0
-3934 4984 0
-3949 4984 0
-3964 4984 0
-3978 4984 0
-4984 3799 3814 3829 3844 3859 3874 3889 3904 3919 3934 3949 3964 3978 0
-3753 4985 0
-3815 4985 0
-3830 4985 0
-3845 4985 0
-3860 4985 0
-3875 4985 0
-3890 4985 0
-3905 4985 0
-3920 4985 0
-3935 4985 0
-3950 4985 0
-3965 4985 0
-3979 4985 0
-4985 3753 3815 3830 3845 3860 3875 3890 3905 3920 3935 3950 3965 3979 0
-3754 4986 0
-3768 4986 0
-3831 4986 0
-3846 4986 0
-3861 4986 0
-3876 4986 0
-3891 4986 0
-3906 4986 0
-3921 4986 0
-3936 4986 0
-3951 4986 0
-3966 4986 0
-3980 4986 0
-4986 3754 3768 3831 3846 3861 3876 3891 3906 3921 3936 3951 3966 3980 0
-3755 4987 0
-3769 4987 0
-3784 4987 0
-3847 4987 0
-3862 4987 0
-3877 4987 0
-3892 4987 0
-3907 4987 0
-3922 4987 0
-3937 4987 0
-3952 4987 0
-3967 4987 0
-3981 4987 0
-4987 3755 3769 3784 3847 3862 3877 3892 3907 3922 3937 3952 3967 3981 0
-3756 4988 0
-3770 4988 0
-3785 4988 0
-3800 4988 0
-3863 4988 0
-3878 4988 0
-3893 4988 0
-3908 4988 0
-3923 4988 0
-3938 4988 0
-3953 4988 0
-3968 4988 0
-3982 4988 0
-4988 3756 3770 3785 3800 3863 3878 3893 3908 3923 3938 3953 3968 3982 0
-3757 4989 0
-3771 4989 0
-3786 4989 0
-3801 4989 0
-3816 4989 0
-3879 4989 0
-3894 4989 0
-3909 4989 0
-3924 4989 0
-3939 4989 0
-3954 4989 0
-3969 4989 0
-3983 4989 0
-4989 3757 3771 3786 3801 3816 3879 3894 3909 3924 3939 3954 3969 3983 0
-3758 4990 0
-3772 4990 0
-3787 4990 0
-3802 4990 0
-3817 4990 0
-3832 4990 0
-3895 4990 0
-3910 4990 0
-3925 4990 0
-3940 4990 0
-3955 4990 0
-3970 4990 0
-3984 4990 0
-4990 3758 3772 3787 3802 3817 3832 3895 3910 3925 3940 3955 3970 3984 0
-3759 4991 0
-3773 4991 0
-3788 4991 0
-3803 4991 0
-3818 4991 0
-3833 4991 0
-3848 4991 0
-3911 4991 0
-3926 4991 0
-3941 4991 0
-3956 4991 0
-3971 4991 0
-3985 4991 0
-4991 3759 3773 3788 3803 3818 3833 3848 3911 3926 3941 3956 3971 3985 0
-3760 4992 0
-3774 4992 0
-3789 4992 0
-3804 4992 0
-3819 4992 0
-3834 4992 0
-3849 4992 0
-3864 4992 0
-3927 4992 0
-3942 4992 0
-3957 4992 0
-3972 4992 0
-3986 4992 0
-4992 3760 3774 3789 3804 3819 3834 3849 3864 3927 3942 3957 3972 3986 0
-3761 4993 0
-3775 4993 0
-3790 4993 0
-3805 4993 0
-3820 4993 0
-3835 4993 0
-3850 4993 0
-3865 4993 0
-3880 4993 0
-3943 4993 0
-3958 4993 0
-3973 4993 0
-3987 4993 0
-4993 3761 3775 3790 3805 3820 3835 3850 3865 3880 3943 3958 3973 3987 0
-3762 4994 0
-3776 4994 0
-3791 4994 0
-3806 4994 0
-3821 4994 0
-3836 4994 0
-3851 4994 0
-3866 4994 0
-3881 4994 0
-3896 4994 0
-3959 4994 0
-3974 4994 0
-3988 4994 0
-4994 3762 3776 3791 3806 3821 3836 3851 3866 3881 3896 3959 3974 3988 0
-3763 4995 0
-3777 4995 0
-3792 4995 0
-3807 4995 0
-3822 4995 0
-3837 4995 0
-3852 4995 0
-3867 4995 0
-3882 4995 0
-3897 4995 0
-3912 4995 0
-3975 4995 0
-3989 4995 0
-4995 3763 3777 3792 3807 3822 3837 3852 3867 3882 3897 3912 3975 3989 0
-3764 4996 0
-3778 4996 0
-3793 4996 0
-3808 4996 0
-3823 4996 0
-3838 4996 0
-3853 4996 0
-3868 4996 0
-3883 4996 0
-3898 4996 0
-3913 4996 0
-3928 4996 0
-3976 4996 0
-3990 4996 0
-4996 3764 3778 3793 3808 3823 3838 3853 3868 3883 3898 3913 3928 3976 3990 0
-3765 4997 0
-3779 4997 0
-3794 4997 0
-3809 4997 0
-3824 4997 0
-3839 4997 0
-3854 4997 0
-3869 4997 0
-3884 4997 0
-3899 4997 0
-3914 4997 0
-3929 4997 0
-3944 4997 0
-3977 4997 0
-3991 4997 0
-4997 3765 3779 3794 3809 3824 3839 3854 3869 3884 3899 3914 3929 3944 3977 3991 0
-3766 4998 0
-3780 4998 0
-3795 4998 0
-3810 4998 0
-3825 4998 0
-3840 4998 0
-3855 4998 0
-3870 4998 0
-3885 4998 0
-3900 4998 0
-3915 4998 0
-3930 4998 0
-3945 4998 0
-3960 4998 0
-3992 4998 0
-4998 3766 3780 3795 3810 3825 3840 3855 3870 3885 3900 3915 3930 3945 3960 3992 0
-3767 4999 0
-3781 4999 0
-3796 4999 0
-3811 4999 0
-3826 4999 0
-3841 4999 0
-3856 4999 0
-3871 4999 0
-3886 4999 0
-3901 4999 0
-3916 4999 0
-3931 4999 0
-3946 4999 0
-3961 4999 0
-4999 3767 3781 3796 3811 3826 3841 3856 3871 3886 3901 3916 3931 3946 3961 0
-3782 5000 0
-3797 5000 0
-3812 5000 0
-3827 5000 0
-3842 5000 0
-3857 5000 0
-3872 5000 0
-3887 5000 0
-3902 5000 0
-3917 5000 0
-3932 5000 0
-3947 5000 0
-3962 5000 0
-5000 3782 3797 3812 3827 3842 3857 3872 3887 3902 3917 3932 3947 3962 0
-4023 5001 0
-4038 5001 0
-4053 5001 0
-4068 5001 0
-4083 5001 0
-4098 5001 0
-4113 5001 0
-4128 5001 0
-4143 5001 0
-4158 5001 0
-4173 5001 0
-4188 5001 0
-4203 5001 0
-5001 4023 4038 4053 4068 4083 4098 4113 4128 4143 4158 4173 4188 4203 0
-4039 5002 0
-4054 5002 0
-4069 5002 0
-4084 5002 0
-4099 5002 0
-4114 5002 0
-4129 5002 0
-4144 5002 0
-4159 5002 0
-4174 5002 0
-4189 5002 0
-4204 5002 0
-4218 5002 0
-5002 4039 4054 4069 4084 4099 4114 4129 4144 4159 4174 4189 4204 4218 0
-3993 5003 0
-4055 5003 0
-4070 5003 0
-4085 5003 0
-4100 5003 0
-4115 5003 0
-4130 5003 0
-4145 5003 0
-4160 5003 0
-4175 5003 0
-4190 5003 0
-4205 5003 0
-4219 5003 0
-5003 3993 4055 4070 4085 4100 4115 4130 4145 4160 4175 4190 4205 4219 0
-3994 5004 0
-4008 5004 0
-4071 5004 0
-4086 5004 0
-4101 5004 0
-4116 5004 0
-4131 5004 0
-4146 5004 0
-4161 5004 0
-4176 5004 0
-4191 5004 0
-4206 5004 0
-4220 5004 0
-5004 3994 4008 4071 4086 4101 4116 4131 4146 4161 4176 4191 4206 4220 0
-3995 5005 0
-4009 5005 0
-4024 5005 0
-4087 5005 0
-4102 5005 0
-4117 5005 0
-4132 5005 0
-4147 5005 0
-4162 5005 0
-4177 5005 0
-4192 5005 0
-4207 5005 0
-4221 5005 0
-5005 3995 4009 4024 4087 4102 4117 4132 4147 4162 4177 4192 4207 4221 0
-3996 5006 0
-4010 5006 0
-4025 5006 0
-4040 5006 0
-4103 5006 0
-4118 5006 0
-4133 5006 0
-4148 5006 0
-4163 5006 0
-4178 5006 0
-4193 5006 0
-4208 5006 0
-4222 5006 0
-5006 3996 4010 4025 4040 4103 4118 4133 4148 4163 4178 4193 4208 4222 0
-3997 5007 0
-4011 5007 0
-4026 5007 0
-4041 5007 0
-4056 5007 0
-4119 5007 0
-4134 5007 0
-4149 5007 0
-4164 5007 0
-4179 5007 0
-4194 5007 0
-4209 5007 0
-4223 5007 0
-5007 3997 4011 4026 4041 4056 4119 4134 4149 4164 4179 4194 4209 4223 0
-3998 5008 0
-4012 5008 0
-4027 5008 0
-4042 5008 0
-4057 5008 0
-4072 5008 0
-4135 5008 0
-4150 5008 0
-4165 5008 0
-4180 5008 0
-4195 5008 0
-4210 5008 0
-4224 5008 0
-5008 3998 4012 4027 4042 4057 4072 4135 4150 4165 4180 4195 4210 4224 0
-3999 5009 0
-4013 5009 0
-4028 5009 0
-4043 5009 0
-4058 5009 0
-4073 5009 0
-4088 5009 0
-4151 5009 0
-4166 5009 0
-4181 5009 0
-4196 5009 0
-4211 5009 0
-4225 5009 0
-5009 3999 4013 4028 4043 4058 4073 4088 4151 4166 4181 4196 4211 4225 0
-4000 5010 0
-4014 5010 0
-4029 5010 0
-4044 5010 0
-4059 5010 0
-4074 5010 0
-4089 5010 0
-4104 5010 0
-4167 5010 0
-4182 5010 0
-4197 5010 0
-4212 5010 0
-4226 5010 0
-5010 4000 4014 4029 4044 4059 4074 4089 4104 4167 4182 4197 4212 4226 0
-4001 5011 0
-4015 5011 0
-4030 5011 0
-4045 5011 0
-4060 5011 0
-4075 5011 0
-4090 5011 0
-4105 5011 0
-4120 5011 0
-4183 5011 0
-4198 5011 0
-4213 5011 0
-4227 5011 0
-5011 4001 4015 4030 4045 4060 4075 4090 4105 4120 4183 4198 4213 4227 0
-4002 5012 0
-4016 5012 0
-4031 5012 0
-4046 5012 0
-4061 5012 0
-4076 5012 0
-4091 5012 0
-4106 5012 0
-4121 5012 0
-4136 5012 0
-4199 5012 0
-4214 5012 0
-4228 5012 0
-5012 4002 4016 4031 4046 4061 4076 4091 4106 4121 4136 4199 4214 4228 0
-4003 5013 0
-4017 5013 0
-4032 5013 0
-4047 5013 0
-4062 5013 0
-4077 5013 0
-4092 5013 0
-4107 5013 0
-4122 5013 0
-4137 5013 0
-4152 5013 0
-4215 5013 0
-4229 5013 0
-5013 4003 4017 4032 4047 4062 4077 4092 4107 4122 4137 4152 4215 4229 0
-4004 5014 0
-4018 5014 0
-4033 5014 0
-4048 5014 0
-4063 5014 0
-4078 5014 0
-4093 5014 0
-4108 5014 0
-4123 5014 0
-4138 5014 0
-4153 5014 0
-4168 5014 0
-4230 5014 0
-5014 4004 4018 4033 4048 4063 4078 4093 4108 4123 4138 4153 4168 4230 0
-4005 5015 0
-4019 5015 0
-4034 5015 0
-4049 5015 0
-4064 5015 0
-4079 5015 0
-4094 5015 0
-4109 5015 0
-4124 5015 0
-4139 5015 0
-4154 5015 0
-4169 5015 0
-4184 5015 0
-4231 5015 0
-5015 4005 4019 4034 4049 4064 4079 4094 4109 4124 4139 4154 4169 4184 4231 0
-4006 5016 0
-4020 5016 0
-4035 5016 0
-4050 5016 0
-4065 5016 0
-4080 5016 0
-4095 5016 0
-4110 5016 0
-4125 5016 0
-4140 5016 0
-4155 5016 0
-4170 5016 0
-4185 5016 0
-4200 5016 0
-4232 5016 0
-5016 4006 4020 4035 4050 4065 4080 4095 4110 4125 4140 4155 4170 4185 4200 4232 0
-4007 5017 0
-4021 5017 0
-4036 5017 0
-4051 5017 0
-4066 5017 0
-4081 5017 0
-4096 5017 0
-4111 5017 0
-4126 5017 0
-4141 5017 0
-4156 5017 0
-4171 5017 0
-4186 5017 0
-4201 5017 0
-4216 5017 0
-5017 4007 4021 4036 4051 4066 4081 4096 4111 4126 4141 4156 4171 4186 4201 4216 0
-4022 5018 0
-4037 5018 0
-4052 5018 0
-4067 5018 0
-4082 5018 0
-4097 5018 0
-4112 5018 0
-4127 5018 0
-4142 5018 0
-4157 5018 0
-4172 5018 0
-4187 5018 0
-4202 5018 0
-4217 5018 0
-5018 4022 4037 4052 4067 4082 4097 4112 4127 4142 4157 4172 4187 4202 4217 0
-4263 5019 0
-4278 5019 0
-4293 5019 0
-4308 5019 0
-4323 5019 0
-4338 5019 0
-4353 5019 0
-4368 5019 0
-4383 5019 0
-4398 5019 0
-4413 5019 0
-4428 5019 0
-4443 5019 0
-4458 5019 0
-5019 4263 4278 4293 4308 4323 4338 4353 4368 4383 4398 4413 4428 4443 4458 0
-4279 5020 0
-4294 5020 0
-4309 5020 0
-4324 5020 0
-4339 5020 0
-4354 5020 0
-4369 5020 0
-4384 5020 0
-4399 5020 0
-4414 5020 0
-4429 5020 0
-4444 5020 0
-4459 5020 0
-5020 4279 4294 4309 4324 4339 4354 4369 4384 4399 4414 4429 4444 4459 0
-4233 5021 0
-4295 5021 0
-4310 5021 0
-4325 5021 0
-4340 5021 0
-4355 5021 0
-4370 5021 0
-4385 5021 0
-4400 5021 0
-4415 5021 0
-4430 5021 0
-4445 5021 0
-4460 5021 0
-5021 4233 4295 4310 4325 4340 4355 4370 4385 4400 4415 4430 4445 4460 0
-4234 5022 0
-4248 5022 0
-4311 5022 0
-4326 5022 0
-4341 5022 0
-4356 5022 0
-4371 5022 0
-4386 5022 0
-4401 5022 0
-4416 5022 0
-4431 5022 0
-4446 5022 0
-4461 5022 0
-5022 4234 4248 4311 4326 4341 4356 4371 4386 4401 4416 4431 4446 4461 0
-4235 5023 0
-4249 5023 0
-4264 5023 0
-4327 5023 0
-4342 5023 0
-4357 5023 0
-4372 5023 0
-4387 5023 0
-4402 5023 0
-4417 5023 0
-4432 5023 0
-4447 5023 0
-4462 5023 0
-5023 4235 4249 4264 4327 4342 4357 4372 4387 4402 4417 4432 4447 4462 0
-4236 5024 0
-4250 5024 0
-4265 5024 0
-4280 5024 0
-4343 5024 0
-4358 5024 0
-4373 5024 0
-4388 5024 0
-4403 5024 0
-4418 5024 0
-4433 5024 0
-4448 5024 0
-4463 5024 0
-5024 4236 4250 4265 4280 4343 4358 4373 4388 4403 4418 4433 4448 4463 0
-4237 5025 0
-4251 5025 0
-4266 5025 0
-4281 5025 0
-4296 5025 0
-4359 5025 0
-4374 5025 0
-4389 5025 0
-4404 5025 0
-4419 5025 0
-4434 5025 0
-4449 5025 0
-4464 5025 0
-5025 4237 4251 4266 4281 4296 4359 4374 4389 4404 4419 4434 4449 4464 0
-4238 5026 0
-4252 5026 0
-4267 5026 0
-4282 5026 0
-4297 5026 0
-4312 5026 0
-4375 5026 0
-4390 5026 0
-4405 5026 0
-4420 5026 0
-4435 5026 0
-4450 5026 0
-4465 5026 0
-5026 4238 4252 4267 4282 4297 4312 4375 4390 4405 4420 4435 4450 4465 0
-4239 5027 0
-4253 5027 0
-4268 5027 0
-4283 5027 0
-4298 5027 0
-4313 5027 0
-4328 5027 0
-4391 5027 0
-4406 5027 0
-4421 5027 0
-4436 5027 0
-4451 5027 0
-4466 5027 0
-5027 4239 4253 4268 4283 4298 4313 4328 4391 4406 4421 4436 4451 4466 0
-4240 5028 0
-4254 5028 0
-4269 5028 0
-4284 5028 0
-4299 5028 0
-4314 5028 0
-4329 5028 0
-4344 5028 0
-4407 5028 0
-4422 5028 0
-4437 5028 0
-4452 5028 0
-4467 5028 0
-5028 4240 4254 4269 4284 4299 4314 4329 4344 4407 4422 4437 4452 4467 0
-4241 5029 0
-4255 5029 0
-4270 5029 0
-4285 5029 0
-4300 5029 0
-4315 5029 0
-4330 5029 0
-4345 5029 0
-4360 5029 0
-4423 5029 0
-4438 5029 0
-4453 5029 0
-4468 5029 0
-5029 4241 4255 4270 4285 4300 4315 4330 4345 4360 4423 4438 4453 4468 0
-4242 5030 0
-4256 5030 0
-4271 5030 0
-4286 5030 0
-4301 5030 0
-4316 5030 0
-4331 5030 0
-4346 5030 0
-4361 5030 0
-4376 5030 0
-4439 5030 0
-4454 5030 0
-4469 5030 0
-5030 4242 4256 4271 4286 4301 4316 4331 4346 4361 4376 4439 4454 4469 0
-4243 5031 0
-4257 5031 0
-4272 5031 0
-4287 5031 0
-4302 5031 0
-4317 5031 0
-4332 5031 0
-4347 5031 0
-4362 5031 0
-4377 5031 0
-4392 5031 0
-4455 5031 0
-4470 5031 0
-5031 4243 4257 4272 4287 4302 4317 4332 4347 4362 4377 4392 4455 4470 0
-4244 5032 0
-4258 5032 0
-4273 5032 0
-4288 5032 0
-4303 5032 0
-4318 5032 0
-4333 5032 0
-4348 5032 0
-4363 5032 0
-4378 5032 0
-4393 5032 0
-4408 5032 0
-4471 5032 0
-5032 4244 4258 4273 4288 4303 4318 4333 4348 4363 4378 4393 4408 4471 0
-4245 5033 0
-4259 5033 0
-4274 5033 0
-4289 5033 0
-4304 5033 0
-4319 5033 0
-4334 5033 0
-4349 5033 0
-4364 5033 0
-4379 5033 0
-4394 5033 0
-4409 5033 0
-4424 5033 0
-5033 4245 4259 4274 4289 4304 4319 4334 4349 4364 4379 4394 4409 4424 0
-4246 5034 0
-4260 5034 0
-4275 5034 0
-4290 5034 0
-4305 5034 0
-4320 5034 0
-4335 5034 0
-4350 5034 0
-4365 5034 0
-4380 5034 0
-4395 5034 0
-4410 5034 0
-4425 5034 0
-4440 5034 0
-5034 4246 4260 4275 4290 4305 4320 4335 4350 4365 4380 4395 4410 4425 4440 0
-4247 5035 0
-4261 5035 0
-4276 5035 0
-4291 5035 0
-4306 5035 0
-4321 5035 0
-4336 5035 0
-4351 5035 0
-4366 5035 0
-4381 5035 0
-4396 5035 0
-4411 5035 0
-4426 5035 0
-4441 5035 0
-4456 5035 0
-5035 4247 4261 4276 4291 4306 4321 4336 4351 4366 4381 4396 4411 4426 4441 4456 0
-4262 5036 0
-4277 5036 0
-4292 5036 0
-4307 5036 0
-4322 5036 0
-4337 5036 0
-4352 5036 0
-4367 5036 0
-4382 5036 0
-4397 5036 0
-4412 5036 0
-4427 5036 0
-4442 5036 0
-4457 5036 0
-4472 5036 0
-5036 4262 4277 4292 4307 4322 4337 4352 4367 4382 4397 4412 4427 4442 4457 4472 0
-4488 5037 0
-4503 5037 0
-4518 5037 0
-4533 5037 0
-4548 5037 0
-4563 5037 0
-4578 5037 0
-4593 5037 0
-4608 5037 0
-4623 5037 0
-4638 5037 0
-4653 5037 0
-4668 5037 0
-4683 5037 0
-4698 5037 0
-5037 4488 4503 4518 4533 4548 4563 4578 4593 4608 4623 4638 4653 4668 4683 4698 0
-4504 5038 0
-4519 5038 0
-4534 5038 0
-4549 5038 0
-4564 5038 0
-4579 5038 0
-4594 5038 0
-4609 5038 0
-4624 5038 0
-4639 5038 0
-4654 5038 0
-4669 5038 0
-4684 5038 0
-4699 5038 0
-5038 4504 4519 4534 4549 4564 4579 4594 4609 4624 4639 4654 4669 4684 4699 0
-4520 5039 0
-4535 5039 0
-4550 5039 0
-4565 5039 0
-4580 5039 0
-4595 5039 0
-4610 5039 0
-4625 5039 0
-4640 5039 0
-4655 5039 0
-4670 5039 0
-4685 5039 0
-4700 5039 0
-5039 4520 4535 4550 4565 4580 4595 4610 4625 4640 4655 4670 4685 4700 0
-4473 5040 0
-4536 5040 0
-4551 5040 0
-4566 5040 0
-4581 5040 0
-4596 5040 0
-4611 5040 0
-4626 5040 0
-4641 5040 0
-4656 5040 0
-4671 5040 0
-4686 5040 0
-4701 5040 0
-5040 4473 4536 4551 4566 4581 4596 4611 4626 4641 4656 4671 4686 4701 0
-4474 5041 0
-4489 5041 0
-4552 5041 0
-4567 5041 0
-4582 5041 0
-4597 5041 0
-4612 5041 0
-4627 5041 0
-4642 5041 0
-4657 5041 0
-4672 5041 0
-4687 5041 0
-4702 5041 0
-5041 4474 4489 4552 4567 4582 4597 4612 4627 4642 4657 4672 4687 4702 0
-4475 5042 0
-4490 5042 0
-4505 5042 0
-4568 5042 0
-4583 5042 0
-4598 5042 0
-4613 5042 0
-4628 5042 0
-4643 5042 0
-4658 5042 0
-4673 5042 0
-4688 5042 0
-4703 5042 0
-5042 4475 4490 4505 4568 4583 4598 4613 4628 4643 4658 4673 4688 4703 0
-4476 5043 0
-4491 5043 0
-4506 5043 0
-4521 5043 0
-4584 5043 0
-4599 5043 0
-4614 5043 0
-4629 5043 0
-4644 5043 0
-4659 5043 0
-4674 5043 0
-4689 5043 0
-4704 5043 0
-5043 4476 4491 4506 4521 4584 4599 4614 4629 4644 4659 4674 4689 4704 0
-4477 5044 0
-4492 5044 0
-4507 5044 0
-4522 5044 0
-4537 5044 0
-4600 5044 0
-4615 5044 0
-4630 5044 0
-4645 5044 0
-4660 5044 0
-4675 5044 0
-4690 5044 0
-4705 5044 0
-5044 4477 4492 4507 4522 4537 4600 4615 4630 4645 4660 4675 4690 4705 0
-4478 5045 0
-4493 5045 0
-4508 5045 0
-4523 5045 0
-4538 5045 0
-4553 5045 0
-4616 5045 0
-4631 5045 0
-4646 5045 0
-4661 5045 0
-4676 5045 0
-4691 5045 0
-4706 5045 0
-5045 4478 4493 4508 4523 4538 4553 4616 4631 4646 4661 4676 4691 4706 0
-4479 5046 0
-4494 5046 0
-4509 5046 0
-4524 5046 0
-4539 5046 0
-4554 5046 0
-4569 5046 0
-4632 5046 0
-4647 5046 0
-4662 5046 0
-4677 5046 0
-4692 5046 0
-4707 5046 0
-5046 4479 4494 4509 4524 4539 4554 4569 4632 4647 4662 4677 4692 4707 0
-4480 5047 0
-4495 5047 0
-4510 5047 0
-4525 5047 0
-4540 5047 0
-4555 5047 0
-4570 5047 0
-4585 5047 0
-4648 5047 0
-4663 5047 0
-4678 5047 0
-4693 5047 0
-4708 5047 0
-5047 4480 4495 4510 4525 4540 4555 4570 4585 4648 4663 4678 4693 4708 0
-4481 5048 0
-4496 5048 0
-4511 5048 0
-4526 5048 0
-4541 5048 0
-4556 5048 0
-4571 5048 0
-4586 5048 0
-4601 5048 0
-4664 5048 0
-4679 5048 0
-4694 5048 0
-4709 5048 0
-5048 4481 4496 4511 4526 4541 4556 4571 4586 4601 4664 4679 4694 4709 0
-4482 5049 0
-4497 5049 0
-4512 5049 0
-4527 5049 0
-4542 5049 0
-4557 5049 0
-4572 5049 0
-4587 5049 0
-4602 5049 0
-4617 5049 0
-4680 5049 0
-4695 5049 0
-4710 5049 0
-5049 4482 4497 4512 4527 4542 4557 4572 4587 4602 4617 4680 4695 4710 0
-4483 5050 0
-4498 5050 0
-4513 5050 0
-4528 5050 0
-4543 5050 0
-4558 5050 0
-4573 5050 0
-4588 5050 0
-4603 5050 0
-4618 5050 0
-4633 5050 0
-4696 5050 0
-4711 5050 0
-5050 4483 4498 4513 4528 4543 4558 4573 4588 4603 4618 4633 4696 4711 0
-4484 5051 0
-4499 5051 0
-4514 5051 0
-4529 5051 0
-4544 5051 0
-4559 5051 0
-4574 5051 0
-4589 5051 0
-4604 5051 0
-4619 5051 0
-4634 5051 0
-4649 5051 0
-4712 5051 0
-5051 4484 4499 4514 4529 4544 4559 4574 4589 4604 4619 4634 4649 4712 0
-4485 5052 0
-4500 5052 0
-4515 5052 0
-4530 5052 0
-4545 5052 0
-4560 5052 0
-4575 5052 0
-4590 5052 0
-4605 5052 0
-4620 5052 0
-4635 5052 0
-4650 5052 0
-4665 5052 0
-5052 4485 4500 4515 4530 4545 4560 4575 4590 4605 4620 4635 4650 4665 0
-4486 5053 0
-4501 5053 0
-4516 5053 0
-4531 5053 0
-4546 5053 0
-4561 5053 0
-4576 5053 0
-4591 5053 0
-4606 5053 0
-4621 5053 0
-4636 5053 0
-4651 5053 0
-4666 5053 0
-4681 5053 0
-5053 4486 4501 4516 4531 4546 4561 4576 4591 4606 4621 4636 4651 4666 4681 0
-4487 5054 0
-4502 5054 0
-4517 5054 0
-4532 5054 0
-4547 5054 0
-4562 5054 0
-4577 5054 0
-4592 5054 0
-4607 5054 0
-4622 5054 0
-4637 5054 0
-4652 5054 0
-4667 5054 0
-4682 5054 0
-4697 5054 0
-5054 4487 4502 4517 4532 4547 4562 4577 4592 4607 4622 4637 4652 4667 4682 4697 0
-5055 -4713 0
5055 4713 0
-5056 -1 0
-5056 -4714 0
5056 1 4714 0
-5057 -2 0
-5057 -4715 0
5057 2 4715 0
-5058 -3 0
-5058 -4716 0
5058 3 4716 0
-5059 -4 0
-5059 -4717 0
5059 4 4717 0
-5060 -5 0
-5060 -4718 0
5060 5 4718 0
-5061 -6 0
-5061 -4719 0
5061 6 4719 0
-5062 -7 0
-5062 -4720 0
5062 7 4720 0
-5063 -8 0
-5063 -4721 0
5063 8 4721 0
-5064 -9 0
-5064 -4722 0
5064 9 4722 0
-5065 -10 0
-5065 -4723 0
5065 10 4723 0
-5066 -11 0
-5066 -4724 0
5066 11 4724 0
-5067 -12 0
-5067 -4725 0
5067 12 4725 0
-5068 -13 0
-5068 -4726 0
5068 13 4726 0
-5069 -14 0
-5069 -4727 0
5069 14 4727 0
-5070 -15 0
-5070 -4728 0
5070 15 4728 0
-5071 -16 0
-5071 -4729 0
5071 16 4729 0
-5072 -4730 0
5072 4730 0
-5073 -4731 0
5073 4731 0
-5074 -4732 0
5074 4732 0
-5075 -17 0
-5075 -4733 0
5075 17 4733 0
-5076 -18 0
-5076 -4734 0
5076 18 4734 0
-5077 -19 0
-5077 -4735 0
5077 19 4735 0
-5078 -20 0
-5078 -4736 0
5078 20 4736 0
-5079 -21 0
-5079 -4737 0
5079 21 4737 0
-5080 -22 0
-5080 -4738 0
5080 22 4738 0
-5081 -23 0
-5081 -4739 0
5081 23 4739 0
-5082 -24 0
-5082 -4740 0
5082 24 4740 0
-5083 -25 0
-5083 -4741 0
5083 25 4741 0
-5084 -26 0
-5084 -4742 0
5084 26 4742 0
-5085 -27 0
-5085 -4743 0
5085 27 4743 0
-5086 -28 0
-5086 -4744 0
5086 28 4744 0
-5087 -29 0
-5087 -4745 0
5087 29 4745 0
-5088 -30 0
-5088 -4746 0
5088 30 4746 0
-5089 -31 0
-5089 -4747 0
5089 31 4747 0
-5090 -32 0
-5090 -4748 0
5090 32 4748 0
-5091 1 0
-5091 -4749 0
5091 -1 4749 0
-5092 -4750 0
5092 4750 0
-5093 -4751 0
5093 4751 0
-5094 -33 0
-5094 -4752 0
5094 33 4752 0
-5095 -34 0
-5095 -4753 0
5095 34 4753 0
-5096 -35 0
-5096 -4754 0
5096 35 4754 0
-5097 -36 0
-5097 -4755 0
5097 36 4755 0
-5098 -37 0
-5098 -4756 0
5098 37 4756 0
-5099 -38 0
-5099 -4757 0
5099 38 4757 0
-5100 -39 0
-5100 -4758 0
5100 39 4758 0
-5101 -40 0
-5101 -4759 0
5101 40 4759 0
-5102 -41 0
-5102 -4760 0
5102 41 4760 0
-5103 -42 0
-5103 -4761 0
5103 42 4761 0
-5104 -43 0
-5104 -4762 0
5104 43 4762 0
-5105 -44 0
-5105 -4763 0
5105 44 4763 0
-5106 -45 0
-5106 -4764 0
5106 45 4764 0
-5107 -46 0
-5107 -4765 0
5107 46 4765 0
-5108 -47 0
-5108 -4766 0
5108 47 4766 0
-5109 2 0
-5109 -4767 0
5109 -2 4767 0
-5110 17 0
-5110 -4768 0
5110 -17 4768 0
-5111 -4769 0
5111 4769 0
-5112 -4770 0
5112 4770 0
-5113 -48 0
-5113 -4771 0
5113 48 4771 0
-5114 -49 0
-5114 -4772 0
5114 49 4772 0
-5115 -50 0
-5115 -4773 0
5115 50 4773 0
-5116 -51 0
-5116 -4774 0
5116 51 4774 0
-5117 -52 0
-5117 -4775 0
5117 52 4775 0
-5118 -53 0
-5118 -4776 0
5118 53 4776 0
-5119 -54 0
-5119 -4777 0
5119 54 4777 0
-5120 -55 0
-5120 -4778 0
5120 55 4778 0
-5121 -56 0
-5121 -4779 0
5121 56 4779 0
-5122 -57 0
-5122 -4780 0
5122 57 4780 0
-5123 -58 0
-5123 -4781 0
5123 58 4781 0
-5124 -59 0
-5124 -4782 0
5124 59 4782 0
-5125 -60 0
-5125 -4783 0
5125 60 4783 0
-5126 -61 0
-5126 -4784 0
5126 61 4784 0
-5127 3 0
-5127 -4785 0
5127 -3 4785 0
-5128 18 0
-5128 -4786 0
5128 -18 4786 0
-5129 33 0
-5129 -4787 0
5129 -33 4787 0
-5130 -4788 0
5130 4788 0
-5131 -4789 0
5131 4789 0
-5132 -62 0
-5132 -4790 0
5132 62 4790 0
-5133 -63 0
-5133 -4791 0
5133 63 4791 0
-5134 -64 0
-5134 -4792 0
5134 64 4792 0
-5135 -65 0
-5135 -4793 0
5135 65 4793 0
-5136 -66 0
-5136 -4794 0
5136 66 4794 0
-5137 -67 0
-5137 -4795 0
5137 67 4795 0
-5138 -68 0
-5138 -4796 0
5138 68 4796 0
-5139 -69 0
-5139 -4797 0
5139 69 4797 0
-5140 -70 0
-5140 -4798 0
5140 70 4798 0
-5141 -71 0
-5141 -4799 0
5141 71 4799 0
-5142 -72 0
-5142 -4800 0
5142 72 4800 0
-5143 -73 0
-5143 -4801 0
5143 73 4801 0
-5144 -74 0
-5144 -4802 0
5144 74 4802 0
-5145 4 0
-5145 -4803 0
5145 -4 4803 0
-5146 19 0
-5146 -4804 0
5146 -19 4804 0
-5147 34 0
-5147 -4805 0
5147 -34 4805 0
-5148 48 0
-5148 -4806 0
5148 -48 4806 0
-5149 -4807 0
5149 4807 0
-5150 -4808 0
5150 4808 0
-5151 -75 0
-5151 -4809 0
5151 75 4809 0
-5152 -76 0
-5152 -4810 0
5152 76 4810 0
-5153 -77 0
-5153 -4811 0
5153 77 4811 0
-5154 -78 0
-5154 -4812 0
5154 78 4812 0
-5155 -79 0
-5155 -4813 0
5155 79 4813 0
-5156 -80 0
-5156 -4814 0
5156 80 4814 0
-5157 -81 0
-5157 -4815 0
5157 81 4815 0
-5158 -82 0
-5158 -4816 0
5158 82 4816 0
-5159 -83 0
-5159 -4817 0
5159 83 4817 0
-5160 -84 0
-5160 -4818 0
5160 84 4818 0
-5161 -85 0
-5161 -4819 0
5161 85 4819 0
-5162 -86 0
-5162 -4820 0
5162 86 4820 0
-5163 5 0
-5163 -4821 0
5163 -5 4821 0
-5164 20 0
-5164 -4822 0
5164 -20 4822 0
-5165 35 0
-5165 -4823 0
5165 -35 4823 0
-5166 49 0
-5166 -4824 0
5166 -49 4824 0
-5167 62 0
-5167 -4825 0
5167 -62 4825 0
-5168 -4826 0
5168 4826 0
-5169 -4827 0
5169 4827 0
-5170 -87 0
-5170 -4828 0
5170 87 4828 0
-5171 -88 0
-5171 -4829 0
5171 88 4829 0
-5172 -89 0
-5172 -4830 0
5172 89 4830 0
-5173 -90 0
-5173 -4831 0
5173 90 4831 0
-5174 -91 0
-5174 -4832 0
5174 91 4832 0
-5175 -92 0
-5175 -4833 0
5175 92 4833 0
-5176 -93 0
-5176 -4834 0
5176 93 4834 0
-5177 -94 0
-5177 -4835 0
5177 94 4835 0
-5178 -95 0
-5178 -4836 0
5178 95 4836 0
-5179 -96 0
-5179 -4837 0
5179 96 4837 0
-5180 -97 0
-5180 -4838 0
5180 97 4838 0
-5181 6 0
-5181 -4839 0
5181 -6 4839 0
-5182 21 0
-5182 -4840 0
5182 -21 4840 0
-5183 36 0
-5183 -4841 0
5183 -36 4841 0
-5184 50 0
-5184 -4842 0
5184 -50 4842 0
-5185 63 0
-5185 -4843 0
5185 -63 4843 0
-5186 75 0
-5186 -4844 0
5186 -75 4844 0
-5187 -4845 0
5187 4845 0
-5188 -4846 0
5188 4846 0
-5189 -98 0
-5189 -4847 0
5189 98 4847 0
-5190 -99 0
-5190 -4848 0
5190 99 4848 0
-5191 -100 0
-5191 -4849 0
5191 100 4849 0
-5192 -101 0
-5192 -4850 0
5192 101 4850 0
-5193 -102 0
-5193 -4851 0
5193 102 4851 0
-5194 -103 0
-5194 -4852 0
5194 103 4852 0
-5195 -104 0
-5195 -4853 0
5195 104 4853 0
-5196 -105 0
-5196 -4854 0
5196 105 4854 0
-5197 -106 0
-5197 -4855 0
5197 106 4855 0
-5198 -107 0
-5198 -4856 0
5198 107 4856 0
-5199 7 0
-5199 -4857 0
5199 -7 4857 0
-5200 22 0
-5200 -4858 0
5200 -22 4858 0
-5201 37 0
-5201 -4859 0
5201 -37 4859 0
-5202 51 0
-5202 -4860 0
5202 -51 4860 0
-5203 64 0
-5203 -4861 0
5203 -64 4861 0
-5204 76 0
-5204 -4862 0
5204 -76 4862 0
-5205 87 0
-5205 -4863 0
5205 -87 4863 0
-5206 -4864 0
5206 4864 0
-5207 -4865 0
5207 4865 0
-5208 -108 0
-5208 -4866 0
5208 108 4866 0
-5209 -109 0
-5209 -4867 0
5209 109 4867 0
-5210 -110 0
-5210 -4868 0
5210 110 4868 0
-5211 -111 0
-5211 -4869 0
5211 111 4869 0
-5212 -112 0
-5212 -4870 0
5212 112 4870 0
-5213 -113 0
-5213 -4871 0
5213 113 4871 0
-5214 -114 0
-5214 -4872 0
5214 114 4872 0
-5215 -115 0
-5215 -4873 0
5215 115 4873 0
-5216 -116 0
-5216 -4874 0
5216 116 4874 0
-5217 8 0
-5217 -4875 0
5217 -8 4875 0
-5218 23 0
-5218 -4876 0
5218 -23 4876 0
-5219 38 0
-5219 -4877 0
5219 -38 4877 0
-5220 52 0
-5220 -4878 0
5220 -52 4878 0
-5221 65 0
-5221 -4879 0
5221 -65 4879 0
-5222 77 0
-5222 -4880 0
5222 -77 4880 0
-5223 88 0
-5223 -4881 0
5223 -88 4881 0
-5224 98 0
-5224 -4882 0
5224 -98 4882 0
-5225 -4883 0
5225 4883 0
-5226 -4884 0
5226 4884 0
-5227 -117 0
-5227 -4885 0
5227 117 4885 0
-5228 -118 0
-5228 -4886 0
5228 118 4886 0
-5229 -119 0
-5229 -4887 0
5229 119 4887 0
-5230 -120 0
-5230 -4888 0
5230 120 4888 0
-5231 -121 0
-5231 -4889 0
5231 121 4889 0
-5232 -122 0
-5232 -4890 0
5232 122 4890 0
-5233 -123 0
-5233 -4891 0
5233 123 4891 0
-5234 -124 0
-5234 -4892 0
5234 124 4892 0
-5235 9 0
-5235 -4893 0
5235 -9 4893 0
-5236 24 0
-5236 -4894 0
5236 -24 4894 0
-5237 39 0
-5237 -4895 0
5237 -39 4895 0
-5238 53 0
-5238 -4896 0
5238 -53 4896 0
-5239 66 0
-5239 -4897 0
5239 -66 4897 0
-5240 78 0
-5240 -4898 0
5240 -78 4898 0
-5241 89 0
-5241 -4899 0
5241 -89 4899 0
-5242 99 0
-5242 -4900 0
5242 -99 4900 0
-5243 108 0
-5243 -4901 0
5243 -108 4901 0
-5244 -4902 0
5244 4902 0
-5245 -4903 0
5245 4903 0
-5246 -125 0
-5246 -4904 0
5246 125 4904 0
-5247 -126 0
-5247 -4905 0
5247 126 4905 0
-5248 -127 0
-5248 -4906 0
5248 127 4906 0
-5249 -128 0
-5249 -4907 0
5249 128 4907 0
-5250 -129 0
-5250 -4908 0
5250 129 4908 0
-5251 -130 0
-5251 -4909 0
5251 130 4909 0
-5252 -131 0
-5252 -4910 0
5252 131 4910 0
-5253 10 0
-5253 -4911 0
5253 -10 4911 0
-5254 25 0
-5254 -4912 0
5254 -25 4912 0
-5255 40 0
-5255 -4913 0
5255 -40 4913 0
-5256 54 0
-5256 -4914 0
5256 -54 4914 0
-5257 67 0
-5257 -4915 0
5257 -67 4915 0
-5258 79 0
-5258 -4916 0
5258 -79 4916 0
-5259 90 0
-5259 -4917 0
5259 -90 4917 0
-5260 100 0
-5260 -4918 0
5260 -100 4918 0
-5261 109 0
-5261 -4919 0
5261 -109 4919 0
-5262 117 0
-5262 -4920 0
5262 -117 4920 0
-5263 -4921 0
5263 4921 0
-5264 -4922 0
5264 4922 0
-5265 -132 0
-5265 -4923 0
5265 132 4923 0
-5266 -133 0
-5266 -4924 0
5266 133 4924 0
-5267 -134 0
-5267 -4925 0
5267 134 4925 0
-5268 -135 0
-5268 -4926 0
5268 135 4926 0
-5269 -136 0
-5269 -4927 0
5269 136 4927 0
-5270 -137 0
-5270 -4928 0
5270 137 4928 0
-5271 11 0
-5271 -4929 0
5271 -11 4929 0
-5272 26 0
-5272 -4930 0
5272 -26 4930 0
-5273 41 0
-5273 -4931 0
5273 -41 4931 0
-5274 55 0
-5274 -4932 0
5274 -55 4932 0
-5275 68 0
-5275 -4933 0
5275 -68 4933 0
-5276 80 0
-5276 -4934 0
5276 -80 4934 0
-5277 91 0
-5277 -4935 0
5277 -91 4935 0
-5278 101 0
-5278 -4936 0
5278 -101 4936 0
-5279 110 0
-5279 -4937 0
5279 -110 4937 0
-5280 118 0
-5280 -4938 0
5280 -118 4938 0
-5281 125 0
-5281 -4939 0
5281 -125 4939 0
-5282 -4940 0
5282 4940 0
-5283 -4941 0
5283 4941 0
-5284 -138 0
-5284 -4942 0
5284 138 4942 0
-5285 -139 0
-5285 -4943 0
5285 139 4943 0
-5286 -140 0
-5286 -4944 0
5286 140 4944 0
-5287 -141 0
-5287 -4945 0
5287 141 4945 0
-5288 -142 0
-5288 -4946 0
5288 142 4946 0
-5289 12 0
-5289 -4947 0
5289 -12 4947 0
-5290 27 0
-5290 -4948 0
5290 -27 4948 0
-5291 42 0
-5291 -4949 0
5291 -42 4949 0
-5292 56 0
-5292 -4950 0
5292 -56 4950 0
-5293 69 0
-5293 -4951 0
5293 -69 4951 0
-5294 81 0
-5294 -4952 0
5294 -81 4952 0
-5295 92 0
-5295 -4953 0
5295 -92 4953 0
-5296 102 0
-5296 -4954 0
5296 -102 4954 0
-5297 111 0
-5297 -4955 0
5297 -111 4955 0
-5298 119 0
-5298 -4956 0
5298 -119 4956 0
-5299 126 0
-5299 -4957 0
5299 -126 4957 0
-5300 132 0
-5300 -4958 0
5300 -132 4958 0
-5301 -4959 0
5301 4959 0
-5302 -4960 0
5302 4960 0
-5303 -143 0
-5303 -4961 0
5303 143 4961 0
-5304 -144 0
-5304 -4962 0
5304 144 4962 0
-5305 -145 0
-5305 -4963 0
5305 145 4963 0
-5306 -146 0
-5306 -4964 0
5306 146 4964 0
-5307 13 0
-5307 -4965 0
5307 -13 4965 0
-5308 28 0
-5308 -4966 0
5308 -28 4966 0
-5309 43 0
-5309 -4967 0
5309 -43 4967 0
-5310 57 0
-5310 -4968 0
5310 -57 4968 0
-5311 70 0
-5311 -4969 0
5311 -70 4969 0
-5312 82 0
-5312 -4970 0
5312 -82 4970 0
-5313 93 0
-5313 -4971 0
5313 -93 4971 0
-5314 103 0
-5314 -4972 0
5314 -103 4972 0
-5315 112 0
-5315 -4973 0
5315 -112 4973 0
-5316 120 0
-5316 -4974 0
5316 -120 4974 0
-5317 127 0
-5317 -4975 0
5317 -127 4975 0
-5318 133 0
-5318 -4976 0
5318 -133 4976 0
-5319 138 0
-5319 -4977 0
5319 -138 4977 0
-5320 -4978 0
5320 4978 0
-5321 -4979 0
5321 4979 0
-5322 -147 0
-5322 -4980 0
5322 147 4980 0
-5323 -148 0
-5323 -4981 0
5323 148 4981 0
-5324 -149 0
-5324 -4982 0
5324 149 4982 0
-5325 14 0
-5325 -4983 0
5325 -14 4983 0
-5326 29 0
-5326 -4984 0
5326 -29 4984 0
-5327 44 0
-5327 -4985 0
5327 -44 4985 0
-5328 58 0
-5328 -4986 0
5328 -58 4986 0
-5329 71 0
-5329 -4987 0
5329 -71 4987 0
-5330 83 0
-5330 -4988 0
5330 -83 4988 0
-5331 94 0
-5331 -4989 0
5331 -94 4989 0
-5332 104 0
-5332 -4990 0
5332 -104 4990 0
-5333 113 0
-5333 -4991 0
5333 -113 4991 0
-5334 121 0
-5334 -4992 0
5334 -121 4992 0
-5335 128 0
-5335 -4993 0
5335 -128 4993 0
-5336 134 0
-5336 -4994 0
5336 -134 4994 0
-5337 139 0
-5337 -4995 0
5337 -139 4995 0
-5338 143 0
-5338 -4996 0
5338 -143 4996 0
-5339 -4997 0
5339 4997 0
-5340 -4998 0
5340 4998 0
-5341 -150 0
-5341 -4999 0
5341 150 4999 0
-5342 -151 0
-5342 -5000 0
5342 151 5000 0
-5343 15 0
-5343 -5001 0
5343 -15 5001 0
-5344 30 0
-5344 -5002 0
5344 -30 5002 0
-5345 45 0
-5345 -5003 0
5345 -45 5003 0
-5346 59 0
-5346 -5004 0
5346 -59 5004 0
-5347 72 0
-5347 -5005 0
5347 -72 5005 0
-5348 84 0
-5348 -5006 0
5348 -84 5006 0
-5349 95 0
-5349 -5007 0
5349 -95 5007 0
-5350 105 0
-5350 -5008 0
5350 -105 5008 0
-5351 114 0
-5351 -5009 0
5351 -114 5009 0
-5352 122 0
-5352 -5010 0
5352 -122 5010 0
-5353 129 0
-5353 -5011 0
5353 -129 5011 0
-5354 135 0
-5354 -5012 0
5354 -135 5012 0
-5355 140 0
-5355 -5013 0
5355 -140 5013 0
-5356 144 0
-5356 -5014 0
5356 -144 5014 0
-5357 147 0
-5357 -5015 0
5357 -147 5015 0
-5358 -5016 0
5358 5016 0
-5359 -5017 0
5359 5017 0
-5360 -152 0
-5360 -5018 0
5360 152 5018 0
-5361 16 0
-5361 -5019 0
5361 -16 5019 0
-5362 31 0
-5362 -5020 0
5362 -31 5020 0
-5363 46 0
-5363 -5021 0
5363 -46 5021 0
-5364 60 0
-5364 -5022 0
5364 -60 5022 0
-5365 73 0
-5365 -5023 0
5365 -73 5023 0
-5366 85 0
-5366 -5024 0
5366 -85 5024 0
-5367 96 0
-5367 -5025 0
5367 -96 5025 0
-5368 106 0
-5368 -5026 0
5368 -106 5026 0
-5369 115 0
-5369 -5027 0
5369 -115 5027 0
-5370 123 0
-5370 -5028 0
5370 -123 5028 0
-5371 130 0
-5371 -5029 0
5371 -130 5029 0
-5372 136 0
-5372 -5030 0
5372 -136 5030 0
-5373 141 0
-5373 -5031 0
5373 -141 5031 0
-5374 145 0
-5374 -5032 0
5374 -145 5032 0
-5375 148 0
-5375 -5033 0
5375 -148 5033 0
-5376 150 0
-5376 -5034 0
5376 -150 5034 0
-5377 -5035 0
5377 5035 0
-5378 -5036 0
5378 5036 0
-5379 -5037 0
5379 5037 0
-5380 32 0
-5380 -5038 0
5380 -32 5038 0
-5381 47 0
-5381 -5039 0
5381 -47 5039 0
-5382 61 0
-5382 -5040 0
5382 -61 5040 0
-5383 74 0
-5383 -5041 0
5383 -74 5041 0
-5384 86 0
-5384 -5042 0
5384 -86 5042 0
-5385 97 0
-5385 -5043 0
5385 -97 5043 0
-5386 107 0
-5386 -5044 0
5386 -107 5044 0
-5387 116 0
-5387 -5045 0
5387 -116 5045 0
-5388 124 0
-5388 -5046 0
5388 -124 5046 0
-5389 131 0
-5389 -5047 0
5389 -131 5047 0
-5390 137 0
-5390 -5048 0
5390 -137 5048 0
-5391 142 0
-5391 -5049 0
5391 -142 5049 0
-5392 146 0
-5392 -5050 0
5392 -146 5050 0
-5393 149 0
-5393 -5051 0
5393 -149 5051 0
-5394 151 0
-5394 -5052 0
5394 -151 5052 0
-5395 152 0
-5395 -5053 0
5395 -152 5053 0
-5396 -5054 0
5396 5054 0
1 5397 0
-5397 5398 0
2 -5397 5399 0
-5399 5400 0
3 -5399 5401 0
-5401 5402 0
4 -5401 5403 0
-5403 5404 0
5 -5403 5405 0
-5405 5406 0
6 -5405 5407 0
-5407 5408 0
7 -5407 5409 0
-5409 5410 0
8 -5409 5411 0
-5411 5412 0
9 -5411 0
2 5398 0
-5398 5413 0
3 -5398 5400 0
-5400 5414 0
4 -5400 5402 0
-5402 5415 0
5 -5402 5404 0
-5404 5416 0
6 -5404 5406 0
-5406 5417 0
7 -5406 5408 0
-5408 5418 0
8 -5408 5410 0
-5410 5419 0
9 -5410 5412 0
-5412 5420 0
10 -5412 0
3 5413 0
-5413 5421 0
4 -5413 5414 0
-5414 5422 0
5 -5414 5415 0
-5415 5423 0
6 -5415 5416 0
-5416 5424 0
7 -5416 5417 0
-5417 5425 0
8 -5417 5418 0
-5418 5426 0
9 -5418 5419 0
-5419 5427 0
10 -5419 5420 0
-5420 5428 0
11 -5420 0
4 5421 0
-5421 5429 0
5 -5421 5422 0
-5422 5430 0
6 -5422 5423 0
-5423 5431 0
7 -5423 5424 0
-5424 5432 0
8 -5424 5425 0
-5425 5433 0
9 -5425 5426 0
-5426 5434 0
10 -5426 5427 0
-5427 5435 0
11 -5427 5428 0
-5428 5436 0
12 -5428 0
5 5429 0
-5429 5437 0
6 -5429 5430 0
-5430 5438 0
7 -5430 5431 0
-5431 5439 0
8 -5431 5432 0
-5432 5440 0
9 -5432 5433 0
-5433 5441 0
10 -5433 5434 0
-5434 5442 0
11 -5434 5435 0
-5435 5443 0
12 -5435 5436 0
-5436 5444 0
13 -5436 0
6 5437 0
-5437 5445 0
7 -5437 5438 0
-5438 5446 0
8 -5438 5439 0
-5439 5447 0
9 -5439 5440 0
-5440 5448 0
10 -5440 5441 0
-5441 5449 0
11 -5441 5442 0
-5442 5450 0
12 -5442 5443 0
-5443 5451 0
13 -5443 5444 0
-5444 5452 0
14 -5444 0
7 5445 0
-5445 5453 0
8 -5445 5446 0
-5446 5454 0
9 -5446 5447 0
-5447 5455 0
10 -5447 5448 0
-5448 5456 0
11 -5448 5449 0
-5449 5457 0
12 -5449 5450 0
-5450 5458 0
13 -5450 5451 0
-5451 5459 0
14 -5451 5452 0
-5452 5460 0
15 -5452 0
8 5453 0
9 -5453 5454 0
10 -5454 5455 0
11 -5455 5456 0
12 -5456 5457 0
13 -5457 5458 0
14 -5458 5459 0
15 -5459 5460 0
16 -5460 0
-1 5461 0
-5461 5462 0
-2 -5461 5463 0
-5463 5464 0
-3 -5463 5465 0
-5465 5466 0
-4 -5465 5467 0
-5467 5468 0
-5 -5467 5469 0
-5469 5470 0
-6 -5469 5471 0
-5471 5472 0
-7 -5471 5473 0
-5473 5474 0
-8 -5473 5475 0
-5475 5476 0
-9 -5475 0
-2 5462 0
-5462 5477 0
-3 -5462 5464 0
-5464 5478 0
-4 -5464 5466 0
-5466 5479 0
-5 -5466 5468 0
-5468 5480 0
-6 -5468 5470 0
-5470 5481 0
-7 -5470 5472 0
-5472 5482 0
-8 -5472 5474 0
-5474 5483 0
-9 -5474 5476 0
-5476 5484 0
-10 -5476 0
-3 5477 0
-5477 5485 0
-4 -5477 5478 0
-5478 5486 0
-5 -5478 5479 0
-5479 5487 0
-6 -5479 5480 0
-5480 5488 0
-7 -5480 5481 0
-5481 5489 0
-8 -5481 5482 0
-5482 5490 0
-9 -5482 5483 0
-5483 5491 0
-10 -5483 5484 0
-5484 5492 0
-11 -5484 0
-4 5485 0
-5485 5493 0
-5 -5485 5486 0
-5486 5494 0
-6 -5486 5487 0
-5487 5495 0
-7 -5487 5488 0
-5488 5496 0
-8 -5488 5489 0
-5489 5497 0
-9 -5489 5490 0
-5490 5498 0
-10 -5490 5491 0
-5491 5499 0
-11 -5491 5492 0
-5492 5500 0
-12 -5492 0
-5 5493 0
-5493 5501 0
-6 -5493 5494 0
-5494 5502 0
-7 -5494 5495 0
-5495 5503 0
-8 -5495 5496 0
-5496 5504 0
-9 -5496 5497 0
-5497 5505 0
-10 -5497 5498 0
-5498 5506 0
-11 -5498 5499 0
-5499 5507 0
-12 -5499 5500 0
-5500 5508 0
-13 -5500 0
-6 5501 0
-5501 5509 0
-7 -5501 5502 0
-5502 5510 0
-8 -5502 5503 0
-5503 5511 0
-9 -5503 5504 0
-5504 5512 0
-10 -5504 5505 0
-5505 5513 0
-11 -5505 5506 0
-5506 5514 0
-12 -5506 5507 0
-5507 5515 0
-13 -5507 5508 0
-5508 5516 0
-14 -5508 0
-7 5509 0
-5509 5517 0
-8 -5509 5510 0
-5510 5518 0
-9 -5510 5511 0
-5511 5519 0
-10 -5511 5512 0
-5512 5520 0
-11 -5512 5513 0
-5513 5521 0
-12 -5513 5514 0
-5514 5522 0
-13 -5514 5515 0
-5515 5523 0
-14 -5515 5516 0
-5516 5524 0
-15 -5516 0
-8 5517 0
-9 -5517 5518 0
-10 -5518 5519 0
-11 -5519 5520 0
-12 -5520 5521 0
-13 -5521 5522 0
-14 -5522 5523 0
-15 -5523 5524 0
-16 -5524 0
17 5525 0
-5525 5526 0
18 -5525 5527 0
-5527 5528 0
19 -5527 5529 0
-5529 5530 0
20 -5529 5531 0
-5531 5532 0
21 -5531 5533 0
-5533 5534 0
22 -5533 5535 0
-5535 5536 0
23 -5535 5537 0
-5537 5538 0
24 -5537 5539 0
-5539 5540 0
25 -5539 0
18 5526 0
-5526 5541 0
19 -5526 5528 0
-5528 5542 0
20 -5528 5530 0
-5530 5543 0
21 -5530 5532 0
-5532 5544 0
22 -5532 5534 0
-5534 5545 0
23 -5534 5536 0
-5536 5546 0
24 -5536 5538 0
-5538 5547 0
25 -5538 5540 0
-5540 5548 0
26 -5540 0
19 5541 0
-5541 5549 0
20 -5541 5542 0
-5542 5550 0
21 -5542 5543 0
-5543 5551 0
22 -5543 5544 0
-5544 5552 0
23 -5544 5545 0
-5545 5553 0
24 -5545 5546 0
-5546 5554 0
25 -5546 5547 0
-5547 5555 0
26 -5547 5548 0
-5548 5556 0
27 -5548 0
20 5549 0
-5549 5557 0
21 -5549 5550 0
-5550 5558 0
22 -5550 5551 0
-5551 5559 0
23 -5551 5552 0
-5552 5560 0
24 -5552 5553 0
-5553 5561 0
25 -5553 5554 0
-5554 5562 0
26 -5554 5555 0
-5555 5563 0
27 -5555 5556 0
-5556 5564 0
28 -5556 0
21 5557 0
-5557 5565 0
22 -5557 5558 0
-5558 5566 0
23 -5558 5559 0
-5559 5567 0
24 -5559 5560 0
-5560 5568 0
25 -5560 5561 0
-5561 5569 0
26 -5561 5562 0
-5562 5570 0
27 -5562 5563 0
-5563 5571 0
28 -5563 5564 0
-5564 5572 0
29 -5564 0
22 5565 0
-5565 5573 0
23 -5565 5566 0
-5566 5574 0
24 -5566 5567 0
-5567 5575 0
25 -5567 5568 0
-5568 5576 0
26 -5568 5569 0
-5569 5577 0
27 -5569 5570 0
-5570 5578 0
28 -5570 5571 0
-5571 5579 0
29 -5571 5572 0
-5572 5580 0
30 -5572 0
23 5573 0
-5573 5581 0
24 -5573 5574 0
-5574 5582 0
25 -5574 5575 0
-5575 5583 0
26 -5575 5576 0
-5576 5584 0
27 -5576 5577 0
-5577 5585 0
28 -5577 5578 0
-5578 5586 0
29 -5578 5579 0
-5579 5587 0
30 -5579 5580 0
-5580 5588 0
31 -5580 0
24 5581 0
25 -5581 5582 0
26 -5582 5583 0
27 -5583 5584 0
28 -5584 5585 0
29 -5585 5586 0
30 -5586 5587 0
31 -5587 5588 0
32 -5588 0
-17 5589 0
-5589 5590 0
-18 -5589 5591 0
-5591 5592 0
-19 -5591 5593 0
-5593 5594 0
-20 -5593 5595 0
-5595 5596 0
-21 -5595 5597 0
-5597 5598 0
-22 -5597 5599 0
-5599 5600 0
-23 -5599 5601 0
-5601 5602 0
-24 -5601 5603 0
-5603 5604 0
-25 -5603 0
-18 5590 0
-5590 5605 0
-19 -5590 5592 0
-5592 5606 0
-20 -5592 5594 0
-5594 5607 0
-21 -5594 5596 0
-5596 5608 0
-22 -5596 5598 0
-5598 5609 0
-23 -5598 5600 0
-5600 5610 0
-24 -5600 5602 0
-5602 5611 0
-25 -5602 5604 0
-5604 5612 0
-26 -5604 0
-19 5605 0
-5605 5613 0
-20 -5605 5606 0
-5606 5614 0
-21 -5606 5607 0
-5607 5615 0
-22 -5607 5608 0
-5608 5616 0
-23 -5608 5609 0
-5609 5617 0
-24 -5609 5610 0
-5610 5618 0
-25 -5610 5611 0
-5611 5619 0
-26 -5611 5612 0
-5612 5620 0
-27 -5612 0
-20 5613 0
-5613 5621 0
-21 -5613 5614 0
-5614 5622 0
-22 -5614 5615 0
-5615 5623 0
-23 -5615 5616 0
-5616 5624 0
-24 -5616 5617 0
-5617 5625 0
-25 -5617 5618 0
-5618 5626 0
-26 -5618 5619 0
-5619 5627 0
-27 -5619 5620 0
-5620 5628 0
-28 -5620 0
-21 5621 0
-5621 5629 0
-22 -5621 5622 0
-5622 5630 0
-23 -5622 5623 0
-5623 5631 0
-24 -5623 5624 0
-5624 5632 0
-25 -5624 5625 0
-5625 5633 0
-26 -5625 5626 0
-5626 5634 0
-27 -5626 5627 0
-5627 5635 0
-28 -5627 5628 0
-5628 5636 0
-29 -5628 0
-22 5629 0
-5629 5637 0
-23 -5629 5630 0
-5630 5638 0
-24 -5630 5631 0
-5631 5639 0
-25 -5631 5632 0
-5632 5640 0
-26 -5632 5633 0
-5633 5641 0
-27 -5633 5634 0
-5634 5642 0
-28 -5634 5635 0
-5635 5643 0
-29 -5635 5636 0
-5636 5644 0
-30 -5636 0
-23 5637 0
-5637 5645 0
-24 -5637 5638 0
-5638 5646 0
-25 -5638 5639 0
-5639 5647 0
-26 -5639 5640 0
-5640 5648 0
-27 -5640 5641 0
-5641 5649 0
-28 -5641 5642 0
-5642 5650 0
-29 -5642 5643 0
-5643 5651 0
-30 -5643 5644 0
-5644 5652 0
-31 -5644 0
-24 5645 0
-25 -5645 5646 0
-26 -5646 5647 0
-27 -5647 5648 0
-28 -5648 5649 0
-29 -5649 5650 0
-30 -5650 5651 0
-31 -5651 5652 0
-32 -5652 0
-1 5653 0
-5653 5654 0
33 -5653 5655 0
-5655 5656 0
34 -5655 5657 0
-5657 5658 0
35 -5657 5659 0
-5659 5660 0
36 -5659 5661 0
-5661 5662 0
37 -5661 5663 0
-5663 5664 0
38 -5663 5665 0
-5665 5666 0
39 -5665 5667 0
-5667 5668 0
40 -5667 0
33 5654 0
-5654 5669 0
34 -5654 5656 0
-5656 5670 0
35 -5656 5658 0
-5658 5671 0
36 -5658 5660 0
-5660 5672 0
37 -5660 5662 0
-5662 5673 0
38 -5662 5664 0
-5664 5674 0
39 -5664 5666 0
-5666 5675 0
40 -5666 5668 0
-5668 5676 0
41 -5668 0
34 5669 0
-5669 5677 0
35 -5669 5670 0
-5670 5678 0
36 -5670 5671 0
-5671 5679 0
37 -5671 5672 0
-5672 5680 0
38 -5672 5673 0
-5673 5681 0
39 -5673 5674 0
-5674 5682 0
40 -5674 5675 0
-5675 5683 0
41 -5675 5676 0
-5676 5684 0
42 -5676 0
35 5677 0
-5677 5685 0
36 -5677 5678 0
-5678 5686 0
37 -5678 5679 0
-5679 5687 0
38 -5679 5680 0
-5680 5688 0
39 -5680 5681 0
-5681 5689 0
40 -5681 5682 0
-5682 5690 0
41 -5682 5683 0
-5683 5691 0
42 -5683 5684 0
-5684 5692 0
43 -5684 0
36 5685 0
-5685 5693 0
37 -5685 5686 0
-5686 5694 0
38 -5686 5687 0
-5687 5695 0
39 -5687 5688 0
-5688 5696 0
40 -5688 5689 0
-5689 5697 0
41 -5689 5690 0
-5690 5698 0
42 -5690 5691 0
-5691 5699 0
43 -5691 5692 0
-5692 5700 0
44 -5692 0
37 5693 0
-5693 5701 0
38 -5693 5694 0
-5694 5702 0
39 -5694 5695 0
-5695 5703 0
40 -5695 5696 0
-5696 5704 0
41 -5696 5697 0
-5697 5705 0
42 -5697 5698 0
-5698 5706 0
43 -5698 5699 0
-5699 5707 0
44 -5699 5700 0
-5700 5708 0
45 -5700 0
38 5701 0
-5701 5709 0
39 -5701 5702 0
-5702 5710 0
40 -5702 5703 0
-5703 5711 0
41 -5703 5704 0
-5704 5712 0
42 -5704 5705 0
-5705 5713 0
43 -5705 5706 0
-5706 5714 0
44 -5706 5707 0
-5707 5715 0
45 -5707 5708 0
-5708 5716 0
46 -5708 0
39 5709 0
40 -5709 5710 0
41 -5710 5711 0
42 -5711 5712 0
43 -5712 5713 0
44 -5713 5714 0
45 -5714 5715 0
46 -5715 5716 0
47 -5716 0
1 5717 0
-5717 5718 0
-33 -5717 5719 0
-5719 5720 0
-34 -5719 5721 0
-5721 5722 0
-35 -5721 5723 0
-5723 5724 0
-36 -5723 5725 0
-5725 5726 0
-37 -5725 5727 0
-5727 5728 0
-38 -5727 5729 0
-5729 5730 0
-39 -5729 5731 0
-5731 5732 0
-40 -5731 0
-33 5718 0
-5718 5733 0
-34 -5718 5720 0
-5720 5734 0
-35 -5720 5722 0
-5722 5735 0
-36 -5722 5724 0
-5724 5736 0
-37 -5724 5726 0
-5726 5737 0
-38 -5726 5728 0
-5728 5738 0
-39 -5728 5730 0
-5730 5739 0
-40 -5730 5732 0
-5732 5740 0
-41 -5732 0
-34 5733 0
-5733 5741 0
-35 -5733 5734 0
-5734 5742 0
-36 -5734 5735 0
-5735 5743 0
-37 -5735 5736 0
-5736 5744 0
-38 -5736 5737 0
-5737 5745 0
-39 -5737 5738 0
-5738 5746 0
-40 -5738 5739 0
-5739 5747 0
-41 -5739 5740 0
-5740 5748 0
-42 -5740 0
-35 5741 0
-5741 5749 0
-36 -5741 5742 0
-5742 5750 0
-37 -5742 5743 0
-5743 5751 0
-38 -5743 5744 0
-5744 5752 0
-39 -5744 5745 0
-5745 5753 0
-40 -5745 5746 0
-5746 5754 0
-41 -5746 5747 0
-5747 5755 0
-42 -5747 5748 0
-5748 5756 0
-43 -5748 0
-36 5749 0
-5749 5757 0
-37 -5749 5750 0
-5750 5758 0
-38 -5750 5751 0
-5751 5759 0
-39 -5751 5752 0
-5752 5760 0
-40 -5752 5753 0
-5753 5761 0
-41 -5753 5754 0
-5754 5762 0
-42 -5754 5755 0
-5755 5763 0
-43 -5755 5756 0
-5756 5764 0
-44 -5756 0
-37 5757 0
-5757 5765 0
-38 -5757 5758 0
-5758 5766 0
-39 -5758 5759 0
-5759 5767 0
-40 -5759 5760 0
-5760 5768 0
-41 -5760 5761 0
-5761 5769 0
-42 -5761 5762 0
-5762 5770 0
-43 -5762 5763 0
-5763 5771 0
-44 -5763 5764 0
-5764 5772 0
-45 -5764 0
-38 5765 0
-5765 5773 0
-39 -5765 5766 0
-5766 5774 0
-40 -5766 5767 0
-5767 5775 0
-41 -5767 5768 0
-5768 5776 0
-42 -5768 5769 0
-5769 5777 0
-43 -5769 5770 0
-5770 5778 0
-44 -5770 5771 0
-5771 5779 0
-45 -5771 5772 0
-5772 5780 0
-46 -5772 0
-39 5773 0
-40 -5773 5774 0
-41 -5774 5775 0
-42 -5775 5776 0
-43 -5776 5777 0
-44 -5777 5778 0
-45 -5778 5779 0
-46 -5779 5780 0
-47 -5780 0
-2 5781 0
-5781 5782 0
-17 -5781 5783 0
-5783 5784 0
48 -5783 5785 0
-5785 5786 0
49 -5785 5787 0
-5787 5788 0
50 -5787 5789 0
-5789 5790 0
51 -5789 5791 0
-5791 5792 0
52 -5791 5793 0
-5793 5794 0
53 -5793 5795 0
-5795 5796 0
54 -5795 0
-17 5782 0
-5782 5797 0
48 -5782 5784 0
-5784 5798 0
49 -5784 5786 0
-5786 5799 0
50 -5786 5788 0
-5788 5800 0
51 -5788 5790 0
-5790 5801 0
52 -5790 5792 0
-5792 5802 0
53 -5792 5794 0
-5794 5803 0
54 -5794 5796 0
-5796 5804 0
55 -5796 0
48 5797 0
-5797 5805 0
49 -5797 5798 0
-5798 5806 0
50 -5798 5799 0
-5799 5807 0
51 -5799 5800 0
-5800 5808 0
52 -5800 5801 0
-5801 5809 0
53 -5801 5802 0
-5802 5810 0
54 -5802 5803 0
-5803 5811 0
55 -5803 5804 0
-5804 5812 0
56 -5804 0
49 5805 0
-5805 5813 0
50 -5805 5806 0
-5806 5814 0
51 -5806 5807 0
-5807 5815 0
52 -5807 5808 0
-5808 5816 0
53 -5808 5809 0
-5809 5817 0
54 -5809 5810 0
-5810 5818 0
55 -5810 5811 0
-5811 5819 0
56 -5811 5812 0
-5812 5820 0
57 -5812 0
50 5813 0
-5813 5821 0
51 -5813 5814 0
-5814 5822 0
52 -5814 5815 0
-5815 5823 0
53 -5815 5816 0
-5816 5824 0
54 -5816 5817 0
-5817 5825 0
55 -5817 5818 0
-5818 5826 0
56 -5818 5819 0
-5819 5827 0
57 -5819 5820 0
-5820 5828 0
58 -5820 0
51 5821 0
-5821 5829 0
52 -5821 5822 0
-5822 5830 0
53 -5822 5823 0
-5823 5831 0
54 -5823 5824 0
-5824 5832 0
55 -5824 5825 0
-5825 5833 0
56 -5825 5826 0
-5826 5834 0
57 -5826 5827 0
-5827 5835 0
58 -5827 5828 0
-5828 5836 0
59 -5828 0
52 5829 0
-5829 5837 0
53 -5829 5830 0
-5830 5838 0
54 -5830 5831 0
-5831 5839 0
55 -5831 5832 0
-5832 5840 0
56 -5832 5833 0
-5833 5841 0
57 -5833 5834 0
-5834 5842 0
58 -5834 5835 0
-5835 5843 0
59 -5835 5836 0
-5836 5844 0
60 -5836 0
53 5837 0
54 -5837 5838 0
55 -5838 5839 0
56 -5839 5840 0
57 -5840 5841 0
58 -5841 5842 0
59 -5842 5843 0
60 -5843 5844 0
61 -5844 0
2 5845 0
-5845 5846 0
17 -5845 5847 0
-5847 5848 0
-48 -5847 5849 0
-5849 5850 0
-49 -5849 5851 0
-5851 5852 0
-50 -5851 5853 0
-5853 5854 0
-51 -5853 5855 0
-5855 5856 0
-52 -5855 5857 0
-5857 5858 0
-53 -5857 5859 0
-5859 5860 0
-54 -5859 0
17 5846 0
-5846 5861 0
-48 -5846 5848 0
-5848 5862 0
-49 -5848 5850 0
-5850 5863 0
-50 -5850 5852 0
-5852 5864 0
-51 -5852 5854 0
-5854 5865 0
-52 -5854 5856 0
-5856 5866 0
-53 -5856 5858 0
-5858 5867 0
-54 -5858 5860 0
-5860 5868 0
-55 -5860 0
-48 5861 0
-5861 5869 0
-49 -5861 5862 0
-5862 5870 0
-50 -5862 5863 0
-5863 5871 0
-51 -5863 5864 0
-5864 5872 0
-52 -5864 5865 0
-5865 5873 0
-53 -5865 5866 0
-5866 5874 0
-54 -5866 5867 0
-5867 5875 0
-55 -5867 5868 0
-5868 5876 0
-56 -5868 0
-49 5869 0
-5869 5877 0
-50 -5869 5870 0
-5870 5878 0
-51 -5870 5871 0
-5871 5879 0
-52 -5871 5872 0
-5872 5880 0
-53 -5872 5873 0
-5873 5881 0
-54 -5873 5874 0
-5874 5882 0
-55 -5874 5875 0
-5875 5883 0
-56 -5875 5876 0
-5876 5884 0
-57 -5876 0
-50 5877 0
-5877 5885 0
-51 -5877 5878 0
-5878 5886 0
-52 -5878 5879 0
-5879 5887 0
-53 -5879 5880 0
-5880 5888 0
-54 -5880 5881 0
-5881 5889 0
-55 -5881 5882 0
-5882 5890 0
-56 -5882 5883 0
-5883 5891 0
-57 -5883 5884 0
-5884 5892 0
-58 -5884 0
-51 5885 0
-5885 5893 0
-52 -5885 5886 0
-5886 5894 0
-53 -5886 5887 0
-5887 5895 0
-54 -5887 5888 0
-5888 5896 0
-55 -5888 5889 0
-5889 5897 0
-56 -5889 5890 0
-5890 5898 0
-57 -5890 5891 0
-5891 5899 0
-58 -5891 5892 0
-5892 5900 0
-59 -5892 0
-52 5893 0
-5893 5901 0
-53 -5893 5894 0
-5894 5902 0
-54 -5894 5895 0
-5895 5903 0
-55 -5895 5896 0
-5896 5904 0
-56 -5896 5897 0
-5897 5905 0
-57 -5897 5898 0
-5898 5906 0
-58 -5898 5899 0
-5899 5907 0
-59 -5899 5900 0
-5900 5908 0
-60 -5900 0
-53 5901 0
-54 -5901 5902 0
-55 -5902 5903 0
-56 -5903 5904 0
-57 -5904 5905 0
-58 -5905 5906 0
-59 -5906 5907 0
-60 -5907 5908 0
-61 -5908 0
-3 5909 0
-5909 5910 0
-18 -5909 5911 0
-5911 5912 0
-33 -5911 5913 0
-5913 5914 0
62 -5913 5915 0
-5915 5916 0
63 -5915 5917 0
-5917 5918 0
64 -5917 5919 0
-5919 5920 0
65 -5919 5921 0
-5921 5922 0
66 -5921 5923 0
-5923 5924 0
67 -5923 0
-18 5910 0
-5910 5925 0
-33 -5910 5912 0
-5912 5926 0
62 -5912 5914 0
-5914 5927 0
63 -5914 5916 0
-5916 5928 0
64 -5916 5918 0
-5918 5929 0
65 -5918 5920 0
-5920 5930 0
66 -5920 5922 0
-5922 5931 0
67 -5922 5924 0
-5924 5932 0
68 -5924 0
-33 5925 0
-5925 5933 0
62 -5925 5926 0
-5926 5934 0
63 -5926 5927 0
-5927 5935 0
64 -5927 5928 0
-5928 5936 0
65 -5928 5929 0
-5929 5937 0
66 -5929 5930 0
-5930 5938 0
67 -5930 5931 0
-5931 5939 0
68 -5931 5932 0
-5932 5940 0
69 -5932 0
62 5933 0
-5933 5941 0
63 -5933 5934 0
-5934 5942 0
64 -5934 5935 0
-5935 5943 0
65 -5935 5936 0
-5936 5944 0
66 -5936 5937 0
-5937 5945 0
67 -5937 5938 0
-5938 5946 0
68 -5938 5939 0
-5939 5947 0
69 -5939 5940 0
-5940 5948 0
70 -5940 0
63 5941 0
-5941 5949 0
64 -5941 5942 0
-5942 5950 0
65 -5942 5943 0
-5943 5951 0
66 -5943 5944 0
-5944 5952 0
67 -5944 5945 0
-5945 5953 0
68 -5945 5946 0
-5946 5954 0
69 -5946 5947 0
-5947 5955 0
70 -5947 5948 0
-5948 5956 0
71 -5948 0
64 5949 0
-5949 5957 0
65 -5949 5950 0
-5950 5958 0
66 -5950 5951 0
-5951 5959 0
67 -5951 5952 0
-5952 5960 0
68 -5952 5953 0
-5953 5961 0
69 -5953 5954 0
-5954 5962 0
70 -5954 5955 0
-5955 5963 0
71 -5955 5956 0
-5956 5964 0
72 -5956 0
65 5957 0
-5957 5965 0
66 -5957 5958 0
-5958 5966 0
67 -5958 5959 0
-5959 5967 0
68 -5959 5960 0
-5960 5968 0
69 -5960 5961 0
-5961 5969 0
70 -5961 5962 0
-5962 5970 0
71 -5962 5963 0
-5963 5971 0
72 -5963 5964 0
-5964 5972 0
73 -5964 0
66 5965 0
67 -5965 5966 0
68 -5966 5967 0
69 -5967 5968 0
70 -5968 5969 0
71 -5969 5970 0
72 -5970 5971 0
73 -5971 5972 0
74 -5972 0
3 5973 0
-5973 5974 0
18 -5973 5975 0
-5975 5976 0
33 -5975 5977 0
-5977 5978 0
-62 -5977 5979 0
-5979 5980 0
-63 -5979 5981 0
-5981 5982 0
-64 -5981 5983 0
-5983 5984 0
-65 -5983 5985 0
-5985 5986 0
-66 -5985 5987 0
-5987 5988 0
-67 -5987 0
18 5974 0
-5974 5989 0
33 -5974 5976 0
-5976 5990 0
-62 -5976 5978 0
-5978 5991 0
-63 -5978 5980 0
-5980 5992 0
-64 -5980 5982 0
-5982 5993 0
-65 -5982 5984 0
-5984 5994 0
-66 -5984 5986 0
-5986 5995 0
-67 -5986 5988 0
-5988 5996 0
-68 -5988 0
33 5989 0
-5989 5997 0
-62 -5989 5990 0
-5990 5998 0
-63 -5990 5991 0
-5991 5999 0
-64 -5991 5992 0
-5992 6000 0
-65 -5992 5993 0
-5993 6001 0
-66 -5993 5994 0
-5994 6002 0
-67 -5994 5995 0
-5995 6003 0
-68 -5995 5996 0
-5996 6004 0
-69 -5996 0
-62 5997 0
-5997 6005 0
-63 -5997 5998 0
-5998 6006 0
-64 -5998 5999 0
-5999 6007 0
-65 -5999 6000 0
-6000 6008 0
-66 -6000 6001 0
-6001 6009 0
-67 -6001 6002 0
-6002 6010 0
-68 -6002 6003 0
-6003 6011 0
-69 -6003 6004 0
-6004 6012 0
-70 -6004 0
-63 6005 0
-6005 6013 0
-64 -6005 6006 0
-6006 6014 0
-65 -6006 6007 0
-6007 6015 0
-66 -6007 6008 0
-6008 6016 0
-67 -6008 6009 0
-6009 6017 0
-68 -6009 6010 0
-6010 6018 0
-69 -6010 6011 0
-6011 6019 0
-70 -6011 6012 0
-6012 6020 0
-71 -6012 0
-64 6013 0
-6013 6021 0
-65 -6013 6014 0
-6014 6022 0
-66 -6014 6015 0
-6015 6023 0
-67 -6015 6016 0
-6016 6024 0
-68 -6016 6017 0
-6017 6025 0
-69 -6017 6018 0
-6018 6026 0
-70 -6018 6019 0
-6019 6027 0
-71 -6019 6020 0
-6020 6028 0
-72 -6020 0
-65 6021 0
-6021 6029 0
-66 -6021 6022 0
-6022 6030 0
-67 -6022 6023 0
-6023 6031 0
-68 -6023 6024 0
-6024 6032 0
-69 -6024 6025 0
-6025 6033 0
-70 -6025 6026 0
-6026 6034 0
-71 -6026 6027 0
-6027 6035 0
-72 -6027 6028 0
-6028 6036 0
-73 -6028 0
-66 6029 0
-67 -6029 6030 0
-68 -6030 6031 0
-69 -6031 6032 0
-70 -6032 6033 0
-71 -6033 6034 0
-72 -6034 6035 0
-73 -6035 6036 0
-74 -6036 0
-4 6037 0
-6037 6038 0
-19 -6037 6039 0
-6039 6040 0
-34 -6039 6041 0
-6041 6042 0
-48 -6041 6043 0
-6043 6044 0
75 -6043 6045 0
-6045 6046 0
76 -6045 6047 0
-6047 6048 0
77 -6047 6049 0
-6049 6050 0
78 -6049 6051 0
-6051 6052 0
79 -6051 0
-19 6038 0
-6038 6053 0
-34 -6038 6040 0
-6040 6054 0
-48 -6040 6042 0
-6042 6055 0
75 -6042 6044 0
-6044 6056 0
76 -6044 6046 0
-6046 6057 0
77 -6046 6048 0
-6048 6058 0
78 -6048 6050 0
-6050 6059 0
79 -6050 6052 0
-6052 6060 0
80 -6052 0
-34 6053 0
-6053 6061 0
-48 -6053 6054 0
-6054 6062 0
75 -6054 6055 0
-6055 6063 0
76 -6055 6056 0
-6056 6064 0
77 -6056 6057 0
-6057 6065 0
78 -6057 6058 0
-6058 6066 0
79 -6058 6059 0
-6059 6067 0
80 -6059 6060 0
-6060 6068 0
81 -6060 0
-48 6061 0
-6061 6069 0
75 -6061 6062 0
-6062 6070 0
76 -6062 6063 0
-6063 6071 0
77 -6063 6064 0
-6064 6072 0
78 -6064 6065 0
-6065 6073 0
79 -6065 6066 0
-6066 6074 0
80 -6066 6067 0
-6067 6075 0
81 -6067 6068 0
-6068 6076 0
82 -6068 0
75 6069 0
-6069 6077 0
76 -6069 6070 0
-6070 6078 0
77 -6070 6071 0
-6071 6079 0
78 -6071 6072 0
-6072 6080 0
79 -6072 6073 0
-6073 6081 0
80 -6073 6074 0
-6074 6082 0
81 -6074 6075 0
-6075 6083 0
82 -6075 6076 0
-6076 6084 0
83 -6076 0
76 6077 0
-6077 6085 0
77 -6077 6078 0
-6078 6086 0
78 -6078 6079 0
-6079 6087 0
79 -6079 6080 0
-6080 6088 0
80 -6080 6081 0
-6081 6089 0
81 -6081 6082 0
-6082 6090 0
82 -6082 6083 0
-6083 6091 0
83 -6083 6084 0
-6084 6092 0
84 -6084 0
77 6085 0
-6085 6093 0
78 -6085 6086 0
-6086 6094 0
79 -6086 6087 0
-6087 6095 0
80 -6087 6088 0
-6088 6096 0
81 -6088 6089 0
-6089 6097 0
82 -6089 6090 0
-6090 6098 0
83 -6090 6091 0
-6091 6099 0
84 -6091 6092 0
-6092 6100 0
85 -6092 0
78 6093 0
79 -6093 6094 0
80 -6094 6095 0
81 -6095 6096 0
82 -6096 6097 0
83 -6097 6098 0
84 -6098 6099 0
85 -6099 6100 0
86 -6100 0
4 6101 0
-6101 6102 0
19 -6101 6103 0
-6103 6104 0
34 -6103 6105 0
-6105 6106 0
48 -6105 6107 0
-6107 6108 0
-75 -6107 6109 0
-6109 6110 0
-76 -6109 6111 0
-6111 6112 0
-77 -6111 6113 0
-6113 6114 0
-78 -6113 6115 0
-6115 6116 0
-79 -6115 0
19 6102 0
-6102 6117 0
34 -6102 6104 0
-6104 6118 0
48 -6104 6106 0
-6106 6119 0
-75 -6106 6108 0
-6108 6120 0
-76 -6108 6110 0
-6110 6121 0
-77 -6110 6112 0
-6112 6122 0
-78 -6112 6114 0
-6114 6123 0
-79 -6114 6116 0
-6116 6124 0
-80 -6116 0
34 6117 0
-6117 6125 0
48 -6117 6118 0
-6118 6126 0
-75 -6118 6119 0
-6119 6127 0
-76 -6119 6120 0
-6120 6128 0
-77 -6120 6121 0
-6121 6129 0
-78 -6121 6122 0
-6122 6130 0
-79 -6122 6123 0
-6123 6131 0
-80 -6123 6124 0
-6124 6132 0
-81 -6124 0
48 6125 0
-6125 6133 0
-75 -6125 6126 0
-6126 6134 0
-76 -6126 6127 0
-6127 6135 0
-77 -6127 6128 0
-6128 6136 0
-78 -6128 6129 0
-6129 6137 0
-79 -6129 6130 0
-6130 6138 0
-80 -6130 6131 0
-6131 6139 0
-81 -6131 6132 0
-6132 6140 0
-82 -6132 0
-75 6133 0
-6133 6141 0
-76 -6133 6134 0
-6134 6142 0
-77 -6134 6135 0
-6135 6143 0
-78 -6135 6136 0
-6136 6144 0
-79 -6136 6137 0
-6137 6145 0
-80 -6137 6138 0
-6138 6146 0
-81 -6138 6139 0
-6139 6147 0
-82 -6139 6140 0
-6140 6148 0
-83 -6140 0
-76 6141 0
-6141 6149 0
-77 -6141 6142 0
-6142 6150 0
-78 -6142 6143 0
-6143 6151 0
-79 -6143 6144 0
-6144 6152 0
-80 -6144 6145 0
-6145 6153 0
-81 -6145 6146 0
-6146 6154 0
-82 -6146 6147 0
-6147 6155 0
-83 -6147 6148 0
-6148 6156 0
-84 -6148 0
-77 6149 0
-6149 6157 0
-78 -6149 6150 0
-6150 6158 0
-79 -6150 6151 0
-6151 6159 0
-80 -6151 6152 0
-6152 6160 0
-81 -6152 6153 0
-6153 6161 0
-82 -6153 6154 0
-6154 6162 0
-83 -6154 6155 0
-6155 6163 0
-84 -6155 6156 0
-6156 6164 0
-85 -6156 0
-78 6157 0
-79 -6157 6158 0
-80 -6158 6159 0
-81 -6159 6160 0
-82 -6160 6161 0
-83 -6161 6162 0
-84 -6162 6163 0
-85 -6163 6164 0
-86 -6164 0
-5 6165 0
-6165 6166 0
-20 -6165 6167 0
-6167 6168 0
-35 -6167 6169 0
-6169 6170 0
-49 -6169 6171 0
-6171 6172 0
-62 -6171 6173 0
-6173 6174 0
87 -6173 6175 0
-6175 6176 0
88 -6175 6177 0
-6177 6178 0
89 -6177 6179 0
-6179 6180 0
90 -6179 0
-20 6166 0
-6166 6181 0
-35 -6166 6168 0
-6168 6182 0
-49 -6168 6170 0
-6170 6183 0
-62 -6170 6172 0
-6172 6184 0
87 -6172 6174 0
-6174 6185 0
88 -6174 6176 0
-6176 6186 0
89 -6176 6178 0
-6178 6187 0
90 -6178 6180 0
-6180 6188 0
91 -6180 0
-35 6181 0
-6181 6189 0
-49 -6181 6182 0
-6182 6190 0
-62 -6182 6183 0
-6183 6191 0
87 -6183 6184 0
-6184 6192 0
88 -6184 6185 0
-6185 6193 0
89 -6185 6186 0
-6186 6194 0
90 -6186 6187 0
-6187 6195 0
91 -6187 6188 0
-6188 6196 0
92 -6188 0
-49 6189 0
-6189 6197 0
-62 -6189 6190 0
-6190 6198 0
87 -6190 6191 0
-6191 6199 0
88 -6191 6192 0
-6192 6200 0
89 -6192 6193 0
-6193 6201 0
90 -6193 6194 0
-6194 6202 0
91 -6194 6195 0
-6195 6203 0
92 -6195 6196 0
-6196 6204 0
93 -6196 0
-62 6197 0
-6197 6205 0
87 -6197 6198 0
-6198 6206 0
88 -6198 6199 0
-6199 6207 0
89 -6199 6200 0
-6200 6208 0
90 -6200 6201 0
-6201 6209 0
91 -6201 6202 0
-6202 6210 0
92 -6202 6203 0
-6203 6211 0
93 -6203 6204 0
-6204 6212 0
94 -6204 0
87 6205 0
-6205 6213 0
88 -6205 6206 0
-6206 6214 0
89 -6206 6207 0
-6207 6215 0
90 -6207 6208 0
-6208 6216 0
91 -6208 6209 0
-6209 6217 0
92 -6209 6210 0
-6210 6218 0
93 -6210 6211 0
-6211 6219 0
94 -6211 6212 0
-6212 6220 0
95 -6212 0
88 6213 0
-6213 6221 0
89 -6213 6214 0
-6214 6222 0
90 -6214 6215 0
-6215 6223 0
91 -6215 6216 0
-6216 6224 0
92 -6216 6217 0
-6217 6225 0
93 -6217 6218 0
-6218 6226 0
94 -6218 6219 0
-6219 6227 0
95 -6219 6220 0
-6220 6228 0
96 -6220 0
89 6221 0
90 -6221 6222 0
91 -6222 6223 0
92 -6223 6224 0
93 -6224 6225 0
94 -6225 6226 0
95 -6226 6227 0
96 -6227 6228 0
97 -6228 0
5 6229 0
-6229 6230 0
20 -6229 6231 0
-6231 6232 0
35 -6231 6233 0
-6233 6234 0
49 -6233 6235 0
-6235 6236 0
62 -6235 6237 0
-6237 6238 0
-87 -6237 6239 0
-6239 6240 0
-88 -6239 6241 0
-6241 6242 0
-89 -6241 6243 0
-6243 6244 0
-90 -6243 0
20 6230 0
-6230 6245 0
35 -6230 6232 0
-6232 6246 0
49 -6232 6234 0
-6234 6247 0
62 -6234 6236 0
-6236 6248 0
-87 -6236 6238 0
-6238 6249 0
-88 -6238 6240 0
-6240 6250 0
-89 -6240 6242 0
-6242 6251 0
-90 -6242 6244 0
-6244 6252 0
-91 -6244 0
35 6245 0
-6245 6253 0
49 -6245 6246 0
-6246 6254 0
62 -6246 6247 0
-6247 6255 0
-87 -6247 6248 0
-6248 6256 0
-88 -6248 6249 0
-6249 6257 0
-89 -6249 6250 0
-6250 6258 0
-90 -6250 6251 0
-6251 6259 0
-91 -6251 6252 0
-6252 6260 0
-92 -6252 0
49 6253 0
-6253 6261 0
62 -6253 6254 0
-6254 6262 0
-87 -6254 6255 0
-6255 6263 0
-88 -6255 6256 0
-6256 6264 0
-89 -6256 6257 0
-6257 6265 0
-90 -6257 6258 0
-6258 6266 0
-91 -6258 6259 0
-6259 6267 0
-92 -6259 6260 0
-6260 6268 0
-93 -6260 0
62 6261 0
-6261 6269 0
-87 -6261 6262 0
-6262 6270 0
-88 -6262 6263 0
-6263 6271 0
-89 -6263 6264 0
-6264 6272 0
-90 -6264 6265 0
-6265 6273 0
-91 -6265 6266 0
-6266 6274 0
-92 -6266 6267 0
-6267 6275 0
-93 -6267 6268 0
-6268 6276 0
-94 -6268 0
-87 6269 0
-6269 6277 0
-88 -6269 6270 0
-6270 6278 0
-89 -6270 6271 0
-6271 6279 0
-90 -6271 6272 0
-6272 6280 0
-91 -6272 6273 0
-6273 6281 0
-92 -6273 6274 0
-6274 6282 0
-93 -6274 6275 0
-6275 6283 0
-94 -6275 6276 0
-6276 6284 0
-95 -6276 0
-88 6277 0
-6277 6285 0
-89 -6277 6278 0
-6278 6286 0
-90 -6278 6279 0
-6279 6287 0
-91 -6279 6280 0
-6280 6288 0
-92 -6280 6281 0
-6281 6289 0
-93 -6281 6282 0
-6282 6290 0
-94 -6282 6283 0
-6283 6291 0
-95 -6283 6284 0
-6284 6292 0
-96 -6284 0
-89 6285 0
-90 -6285 6286 0
-91 -6286 6287 0
-92 -6287 6288 0
-93 -6288 6289 0
-94 -6289 6290 0
-95 -6290 6291 0
-96 -6291 6292 0
-97 -6292 0
-6 6293 0
-6293 6294 0
-21 -6293 6295 0
-6295 6296 0
-36 -6295 6297 0
-6297 6298 0
-50 -6297 6299 0
-6299 6300 0
-63 -6299 6301 0
-6301 6302 0
-75 -6301 6303 0
-6303 6304 0
98 -6303 6305 0
-6305 6306 0
99 -6305 6307 0
-6307 6308 0
100 -6307 0
-21 6294 0
-6294 6309 0
-36 -6294 6296 0
-6296 6310 0
-50 -6296 6298 0
-6298 6311 0
-63 -6298 6300 0
-6300 6312 0
-75 -6300 6302 0
-6302 6313 0
98 -6302 6304 0
-6304 6314 0
99 -6304 6306 0
-6306 6315 0
100 -6306 6308 0
-6308 6316 0
101 -6308 0
-36 6309 0
-6309 6317 0
-50 -6309 6310 0
-6310 6318 0
-63 -6310 6311 0
-6311 6319 0
-75 -6311 6312 0
-6312 6320 0
98 -6312 6313 0
-6313 6321 0
99 -6313 6314 0
-6314 6322 0
100 -6314 6315 0
-6315 6323 0
101 -6315 6316 0
-6316 6324 0
102 -6316 0
-50 6317 0
-6317 6325 0
-63 -6317 6318 0
-6318 6326 0
-75 -6318 6319 0
-6319 6327 0
98 -6319 6320 0
-6320 6328 0
99 -6320 6321 0
-6321 6329 0
100 -6321 6322 0
-6322 6330 0
101 -6322 6323 0
-6323 6331 0
102 -6323 6324 0
-6324 6332 0
103 -6324 0
-63 6325 0
-6325 6333 0
-75 -6325 6326 0
-6326 6334 0
98 -6326 6327 0
-6327 6335 0
99 -6327 6328 0
-6328 6336 0
100 -6328 6329 0
-6329 6337 0
101 -6329 6330 0
-6330 6338 0
102 -6330 6331 0
-6331 6339 0
103 -6331 6332 0
-6332 6340 0
104 -6332 0
-75 6333 0
-6333 6341 0
98 -6333 6334 0
-6334 6342 0
99 -6334 6335 0
-6335 6343 0
100 -6335 6336 0
-6336 6344 0
101 -6336 6337 0
-6337 6345 0
102 -6337 6338 0
-6338 6346 0
103 -6338 6339 0
-6339 6347 0
104 -6339 6340 0
-6340 6348 0
105 -6340 0
98 6341 0
-6341 6349 0
99 -6341 6342 0
-6342 6350 0
100 -6342 6343 0
-6343 6351 0
101 -6343 6344 0
-6344 6352 0
102 -6344 6345 0
-6345 6353 0
103 -6345 6346 0
-6346 6354 0
104 -6346 6347 0
-6347 6355 0
105 -6347 6348 0
-6348 6356 0
106 -6348 0
99 6349 0
100 -6349 6350 0
101 -6350 6351 0
102 -6351 6352 0
103 -6352 6353 0
104 -6353 6354 0
105 -6354 6355 0
106 -6355 6356 0
107 -6356 0
6 6357 0
-6357 6358 0
21 -6357 6359 0
-6359 6360 0
36 -6359 6361 0
-6361 6362 0
50 -6361 6363 0
-6363 6364 0
63 -6363 6365 0
-6365 6366 0
75 -6365 6367 0
-6367 6368 0
-98 -6367 6369 0
-6369 6370 0
-99 -6369 6371 0
-6371 6372 0
-100 -6371 0
21 6358 0
-6358 6373 0
36 -6358 6360 0
-6360 6374 0
50 -6360 6362 0
-6362 6375 0
63 -6362 6364 0
-6364 6376 0
75 -6364 6366 0
-6366 6377 0
-98 -6366 6368 0
-6368 6378 0
-99 -6368 6370 0
-6370 6379 0
-100 -6370 6372 0
-6372 6380 0
-101 -6372 0
36 6373 0
-6373 6381 0
50 -6373 6374 0
-6374 6382 0
63 -6374 6375 0
-6375 6383 0
75 -6375 6376 0
-6376 6384 0
-98 -6376 6377 0
-6377 6385 0
-99 -6377 6378 0
-6378 6386 0
-100 -6378 6379 0
-6379 6387 0
-101 -6379 6380 0
-6380 6388 0
-102 -6380 0
50 6381 0
-6381 6389 0
63 -6381 6382 0
-6382 6390 0
75 -6382 6383 0
-6383 6391 0
-98 -6383 6384 0
-6384 6392 0
-99 -6384 6385 0
-6385 6393 0
-100 -6385 6386 0
-6386 6394 0
-101 -6386 6387 0
-6387 6395 0
-102 -6387 6388 0
-6388 6396 0
-103 -6388 0
63 6389 0
-6389 6397 0
75 -6389 6390 0
-6390 6398 0
-98 -6390 6391 0
-6391 6399 0
-99 -6391 6392 0
-6392 6400 0
-100 -6392 6393 0
-6393 6401 0
-101 -6393 6394 0
-6394 6402 0
-102 -6394 6395 0
-6395 6403 0
-103 -6395 6396 0
-6396 6404 0
-104 -6396 0
75 6397 0
-6397 6405 0
-98 -6397 6398 0
-6398 6406 0
-99 -6398 6399 0
-6399 6407 0
-100 -6399 6400 0
-6400 6408 0
-101 -6400 6401 0
-6401 6409 0
-102 -6401 6402 0
-6402 6410 0
-103 -6402 6403 0
-6403 6411 0
-104 -6403 6404 0
-6404 6412 0
-105 -6404 0
-98 6405 0
-6405 6413 0
-99 -6405 6406 0
-6406 6414 0
-100 -6406 6407 0
-6407 6415 0
-101 -6407 6408 0
-6408 6416 0
-102 -6408 6409 0
-6409 6417 0
-103 -6409 6410 0
-6410 6418 0
-104 -6410 6411 0
-6411 6419 0
-105 -6411 6412 0
-6412 6420 0
-106 -6412 0
-99 6413 0
-100 -6413 6414 0
-101 -6414 6415 0
-102 -6415 6416 0
-103 -6416 6417 0
-104 -6417 6418 0
-105 -6418 6419 0
-106 -6419 6420 0
-107 -6420 0
-7 6421 0
-6421 6422 0
-22 -6421 6423 0
-6423 6424 0
-37 -6423 6425 0
-6425 6426 0
-51 -6425 6427 0
-6427 6428 0
-64 -6427 6429 0
-6429 6430 0
-76 -6429 6431 0
-6431 6432 0
-87 -6431 6433 0
-6433 6434 0
108 -6433 6435 0
-6435 6436 0
109 -6435 0
-22 6422 0
-6422 6437 0
-37 -6422 6424 0
-6424 6438 0
-51 -6424 6426 0
-6426 6439 0
-64 -6426 6428 0
-6428 6440 0
-76 -6428 6430 0
-6430 6441 0
-87 -6430 6432 0
-6432 6442 0
108 -6432 6434 0
-6434 6443 0
109 -6434 6436 0
-6436 6444 0
110 -6436 0
-37 6437 0
-6437 6445 0
-51 -6437 6438 0
-6438 6446 0
-64 -6438 6439 0
-6439 6447 0
-76 -6439 6440 0
-6440 6448 0
-87 -6440 6441 0
-6441 6449 0
108 -6441 6442 0
-6442 6450 0
109 -6442 6443 0
-6443 6451 0
110 -6443 6444 0
-6444 6452 0
111 -6444 0
-51 6445 0
-6445 6453 0
-64 -6445 6446 0
-6446 6454 0
-76 -6446 6447 0
-6447 6455 0
-87 -6447 6448 0
-6448 6456 0
108 -6448 6449 0
-6449 6457 0
109 -6449 6450 0
-6450 6458 0
110 -6450 6451 0
-6451 6459 0
111 -6451 6452 0
-6452 6460 0
112 -6452 0
-64 6453 0
-6453 6461 0
-76 -6453 6454 0
-6454 6462 0
-87 -6454 6455 0
-6455 6463 0
108 -6455 6456 0
-6456 6464 0
109 -6456 6457 0
-6457 6465 0
110 -6457 6458 0
-6458 6466 0
111 -6458 6459 0
-6459 6467 0
112 -6459 6460 0
-6460 6468 0
113 -6460 0
-76 6461 0
-6461 6469 0
-87 -6461 6462 0
-6462 6470 0
108 -6462 6463 0
-6463 6471 0
109 -6463 6464 0
-6464 6472 0
110 -6464 6465 0
-6465 6473 0
111 -6465 6466 0
-6466 6474 0
112 -6466 6467 0
-6467 6475 0
113 -6467 6468 0
-6468 6476 0
114 -6468 0
-87 6469 0
-6469 6477 0
108 -6469 6470 0
-6470 6478 0
109 -6470 6471 0
-6471 6479 0
110 -6471 6472 0
-6472 6480 0
111 -6472 6473 0
-6473 6481 0
112 -6473 6474 0
-6474 6482 0
113 -6474 6475 0
-6475 6483 0
114 -6475 6476 0
-6476 6484 0
115 -6476 0
108 6477 0
109 -6477 6478 0
110 -6478 6479 0
111 -6479 6480 0
112 -6480 6481 0
113 -6481 6482 0
114 -6482 6483 0
115 -6483 6484 0
116 -6484 0
7 6485 0
-6485 6486 0
22 -6485 6487 0
-6487 6488 0
37 -6487 6489 0
-6489 6490 0
51 -6489 6491 0
-6491 6492 0
64 -6491 6493 0
-6493 6494 0
76 -6493 6495 0
-6495 6496 0
87 -6495 6497 0
-6497 6498 0
-108 -6497 6499 0
-6499 6500 0
-109 -6499 0
22 6486 0
-6486 6501 0
37 -6486 6488 0
-6488 6502 0
51 -6488 6490 0
-6490 6503 0
64 -6490 6492 0
-6492 6504 0
76 -6492 6494 0
-6494 6505 0
87 -6494 6496 0
-6496 6506 0
-108 -6496 6498 0
-6498 6507 0
-109 -6498 6500 0
-6500 6508 0
-110 -6500 0
37 6501 0
-6501 6509 0
51 -6501 6502 0
-6502 6510 0
64 -6502 6503 0
-6503 6511 0
76 -6503 6504 0
-6504 6512 0
87 -6504 6505 0
-6505 6513 0
-108 -6505 6506 0
-6506 6514 0
-109 -6506 6507 0
-6507 6515 0
-110 -6507 6508 0
-6508 6516 0
-111 -6508 0
51 6509 0
-6509 6517 0
64 -6509 6510 0
-6510 6518 0
76 -6510 6511 0
-6511 6519 0
87 -6511 6512 0
-6512 6520 0
-108 -6512 6513 0
-6513 6521 0
-109 -6513 6514 0
-6514 6522 0
-110 -6514 6515 0
-6515 6523 0
-111 -6515 6516 0
-6516 6524 0
-112 -6516 0
64 6517 0
-6517 6525 0
76 -6517 6518 0
-6518 6526 0
87 -6518 6519 0
-6519 6527 0
-108 -6519 6520 0
-6520 6528 0
-109 -6520 6521 0
-6521 6529 0
-110 -6521 6522 0
-6522 6530 0
-111 -6522 6523 0
-6523 6531 0
-112 -6523 6524 0
-6524 6532 0
-113 -6524 0
76 6525 0
-6525 6533 0
87 -6525 6526 0
-6526 6534 0
-108 -6526 6527 0
-6527 6535 0
-109 -6527 6528 0
-6528 6536 0
-110 -6528 6529 0
-6529 6537 0
-111 -6529 6530 0
-6530 6538 0
-112 -6530 6531 0
-6531 6539 0
-113 -6531 6532 0
-6532 6540 0
-114 -6532 0
87 6533 0
-6533 6541 0
-108 -6533 6534 0
-6534 6542 0
-109 -6534 6535 0
-6535 6543 0
-110 -6535 6536 0
-6536 6544 0
-111 -6536 6537 0
-6537 6545 0
-112 -6537 6538 0
-6538 6546 0
-113 -6538 6539 0
-6539 6547 0
-114 -6539 6540 0
-6540 6548 0
-115 -6540 0
-108 6541 0
-109 -6541 6542 0
-110 -6542 6543 0
-111 -6543 6544 0
-112 -6544 6545 0
-113 -6545 6546 0
-114 -6546 6547 0
-115 -6547 6548 0
-116 -6548 0
-8 6549 0
-6549 6550 0
-23 -6549 6551 0
-6551 6552 0
-38 -6551 6553 0
-6553 6554 0
-52 -6553 6555 0
-6555 6556 0
-65 -6555 6557 0
-6557 6558 0
-77 -6557 6559 0
-6559 6560 0
-88 -6559 6561 0
-6561 6562 0
-98 -6561 6563 0
-6563 6564 0
117 -6563 0
-23 6550 0
-6550 6565 0
-38 -6550 6552 0
-6552 6566 0
-52 -6552 6554 0
-6554 6567 0
-65 -6554 6556 0
-6556 6568 0
-77 -6556 6558 0
-6558 6569 0
-88 -6558 6560 0
-6560 6570 0
-98 -6560 6562 0
-6562 6571 0
117 -6562 6564 0
-6564 6572 0
118 -6564 0
-38 6565 0
-6565 6573 0
-52 -6565 6566 0
-6566 6574 0
-65 -6566 6567 0
-6567 6575 0
-77 -6567 6568 0
-6568 6576 0
-88 -6568 6569 0
-6569 6577 0
-98 -6569 6570 0
-6570 6578 0
117 -6570 6571 0
-6571 6579 0
118 -6571 6572 0
-6572 6580 0
119 -6572 0
-52 6573 0
-6573 6581 0
-65 -6573 6574 0
-6574 6582 0
-77 -6574 6575 0
-6575 6583 0
-88 -6575 6576 0
-6576 6584 0
-98 -6576 6577 0
-6577 6585 0
117 -6577 6578 0
-6578 6586 0
118 -6578 6579 0
-6579 6587 0
119 -6579 6580 0
-6580 6588 0
120 -6580 0
-65 6581 0
-6581 6589 0
-77 -6581 6582 0
-6582 6590 0
-88 -6582 6583 0
-6583 6591 0
-98 -6583 6584 0
-6584 6592 0
117 -6584 6585 0
-6585 6593 0
118 -6585 6586 0
-6586 6594 0
119 -6586 6587 0
-6587 6595 0
120 -6587 6588 0
-6588 6596 0
121 -6588 0
-77 6589 0
-6589 6597 0
-88 -6589 6590 0
-6590 6598 0
-98 -6590 6591 0
-6591 6599 0
117 -6591 6592 0
-6592 6600 0
118 -6592 6593 0
-6593 6601 0
119 -6593 6594 0
-6594 6602 0
120 -6594 6595 0
-6595 6603 0
121 -6595 6596 0
-6596 6604 0
122 -6596 0
-88 6597 0
-6597 6605 0
-98 -6597 6598 0
-6598 6606 0
117 -6598 6599 0
-6599 6607 0
118 -6599 6600 0
-6600 6608 0
119 -6600 6601 0
-6601 6609 0
120 -6601 6602 0
-6602 6610 0
121 -6602 6603 0
-6603 6611 0
122 -6603 6604 0
-6604 6612 0
123 -6604 0
-98 6605 0
117 -6605 6606 0
118 -6606 6607 0
119 -6607 6608 0
120 -6608 6609 0
121 -6609 6610 0
122 -6610 6611 0
123 -6611 6612 0
124 -6612 0
8 6613 0
-6613 6614 0
23 -6613 6615 0
-6615 6616 0
38 -6615 6617 0
-6617 6618 0
52 -6617 6619 0
-6619 6620 0
65 -6619 6621 0
-6621 6622 0
77 -6621 6623 0
-6623 6624 0
88 -6623 6625 0
-6625 6626 0
98 -6625 6627 0
-6627 6628 0
-117 -6627 0
23 6614 0
-6614 6629 0
38 -6614 6616 0
-6616 6630 0
52 -6616 6618 0
-6618 6631 0
65 -6618 6620 0
-6620 6632 0
77 -6620 6622 0
-6622 6633 0
88 -6622 6624 0
-6624 6634 0
98 -6624 6626 0
-6626 6635 0
-117 -6626 6628 0
-6628 6636 0
-118 -6628 0
38 6629 0
-6629 6637 0
52 -6629 6630 0
-6630 6638 0
65 -6630 6631 0
-6631 6639 0
77 -6631 6632 0
-6632 6640 0
88 -6632 6633 0
-6633 6641 0
98 -6633 6634 0
-6634 6642 0
-117 -6634 6635 0
-6635 6643 0
-118 -6635 6636 0
-6636 6644 0
-119 -6636 0
52 6637 0
-6637 6645 0
65 -6637 6638 0
-6638 6646 0
77 -6638 6639 0
-6639 6647 0
88 -6639 6640 0
-6640 6648 0
98 -6640 6641 0
-6641 6649 0
-117 -6641 6642 0
-6642 6650 0
-118 -6642 6643 0
-6643 6651 0
-119 -6643 6644 0
-6644 6652 0
-120 -6644 0
65 6645 0
-6645 6653 0
77 -6645 6646 0
-6646 6654 0
88 -6646 6647 0
-6647 6655 0
98 -6647 6648 0
-6648 6656 0
-117 -6648 6649 0
-6649 6657 0
-118 -6649 6650 0
-6650 6658 0
-119 -6650 6651 0
-6651 6659 0
-120 -6651 6652 0
-6652 6660 0
-121 -6652 0
77 6653 0
-6653 6661 0
88 -6653 6654 0
-6654 6662 0
98 -6654 6655 0
-6655 6663 0
-117 -6655 6656 0
-6656 6664 0
-118 -6656 6657 0
-6657 6665 0
-119 -6657 6658 0
-6658 6666 0
-120 -6658 6659 0
-6659 6667 0
-121 -6659 6660 0
-6660 6668 0
-122 -6660 0
88 6661 0
-6661 6669 0
98 -6661 6662 0
-6662 6670 0
-117 -6662 6663 0
-6663 6671 0
-118 -6663 6664 0
-6664 6672 0
-119 -6664 6665 0
-6665 6673 0
-120 -6665 6666 0
-6666 6674 0
-121 -6666 6667 0
-6667 6675 0
-122 -6667 6668 0
-6668 6676 0
-123 -6668 0
98 6669 0
-117 -6669 6670 0
-118 -6670 6671 0
-119 -6671 6672 0
-120 -6672 6673 0
-121 -6673 6674 0
-122 -6674 6675 0
-123 -6675 6676 0
-124 -6676 0
-9 6677 0
-6677 6678 0
-24 -6677 6679 0
-6679 6680 0
-39 -6679 6681 0
-6681 6682 0
-53 -6681 6683 0
-6683 6684 0
-66 -6683 6685 0
-6685 6686 0
-78 -6685 6687 0
-6687 6688 0
-89 -6687 6689 0
-6689 6690 0
-99 -6689 6691 0
-6691 6692 0
-108 -6691 0
-24 6678 0
-6678 6693 0
-39 -6678 6680 0
-6680 6694 0
-53 -6680 6682 0
-6682 6695 0
-66 -6682 6684 0
-6684 6696 0
-78 -6684 6686 0
-6686 6697 0
-89 -6686 6688 0
-6688 6698 0
-99 -6688 6690 0
-6690 6699 0
-108 -6690 6692 0
-6692 6700 0
125 -6692 0
-39 6693 0
-6693 6701 0
-53 -6693 6694 0
-6694 6702 0
-66 -6694 6695 0
-6695 6703 0
-78 -6695 6696 0
-6696 6704 0
-89 -6696 6697 0
-6697 6705 0
-99 -6697 6698 0
-6698 6706 0
-108 -6698 6699 0
-6699 6707 0
125 -6699 6700 0
-6700 6708 0
126 -6700 0
-53 6701 0
-6701 6709 0
-66 -6701 6702 0
-6702 6710 0
-78 -6702 6703 0
-6703 6711 0
-89 -6703 6704 0
-6704 6712 0
-99 -6704 6705 0
-6705 6713 0
-108 -6705 6706 0
-6706 6714 0
125 -6706 6707 0
-6707 6715 0
126 -6707 6708 0
-6708 6716 0
127 -6708 0
-66 6709 0
-6709 6717 0
-78 -6709 6710 0
-6710 6718 0
-89 -6710 6711 0
-6711 6719 0
-99 -6711 6712 0
-6712 6720 0
-108 -6712 6713 0
-6713 6721 0
125 -6713 6714 0
-6714 6722 0
126 -6714 6715 0
-6715 6723 0
127 -6715 6716 0
-6716 6724 0
128 -6716 0
-78 6717 0
-6717 6725 0
-89 -6717 6718 0
-6718 6726 0
-99 -6718 6719 0
-6719 6727 0
-108 -6719 6720 0
-6720 6728 0
125 -6720 6721 0
-6721 6729 0
126 -6721 6722 0
-6722 6730 0
127 -6722 6723 0
-6723 6731 0
128 -6723 6724 0
-6724 6732 0
129 -6724 0
-89 6725 0
-6725 6733 0
-99 -6725 6726 0
-6726 6734 0
-108 -6726 6727 0
-6727 6735 0
125 -6727 6728 0
-6728 6736 0
126 -6728 6729 0
-6729 6737 0
127 -6729 6730 0
-6730 6738 0
128 -6730 6731 0
-6731 6739 0
129 -6731 6732 0
-6732 6740 0
130 -6732 0
-99 6733 0
-108 -6733 6734 0
125 -6734 6735 0
126 -6735 6736 0
127 -6736 6737 0
128 -6737 6738 0
129 -6738 6739 0
130 -6739 6740 0
131 -6740 0
9 6741 0
-6741 6742 0
24 -6741 6743 0
-6743 6744 0
39 -6743 6745 0
-6745 6746 0
53 -6745 6747 0
-6747 6748 0
66 -6747 6749 0
-6749 6750 0
78 -6749 6751 0
-6751 6752 0
89 -6751 6753 0
-6753 6754 0
99 -6753 6755 0
-6755 6756 0
108 -6755 0
24 6742 0
-6742 6757 0
39 -6742 6744 0
-6744 6758 0
53 -6744 6746 0
-6746 6759 0
66 -6746 6748 0
-6748 6760 0
78 -6748 6750 0
-6750 6761 0
89 -6750 6752 0
-6752 6762 0
99 -6752 6754 0
-6754 6763 0
108 -6754 6756 0
-6756 6764 0
-125 -6756 0
39 6757 0
-6757 6765 0
53 -6757 6758 0
-6758 6766 0
66 -6758 6759 0
-6759 6767 0
78 -6759 6760 0
-6760 6768 0
89 -6760 6761 0
-6761 6769 0
99 -6761 6762 0
-6762 6770 0
108 -6762 6763 0
-6763 6771 0
-125 -6763 6764 0
-6764 6772 0
-126 -6764 0
53 6765 0
-6765 6773 0
66 -6765 6766 0
-6766 6774 0
78 -6766 6767 0
-6767 6775 0
89 -6767 6768 0
-6768 6776 0
99 -6768 6769 0
-6769 6777 0
108 -6769 6770 0
-6770 6778 0
-125 -6770 6771 0
-6771 6779 0
-126 -6771 6772 0
-6772 6780 0
-127 -6772 0
66 6773 0
-6773 6781 0
78 -6773 6774 0
-6774 6782 0
89 -6774 6775 0
-6775 6783 0
99 -6775 6776 0
-6776 6784 0
108 -6776 6777 0
-6777 6785 0
-125 -6777 6778 0
-6778 6786 0
-126 -6778 6779 0
-6779 6787 0
-127 -6779 6780 0
-6780 6788 0
-128 -6780 0
78 6781 0
-6781 6789 0
89 -6781 6782 0
-6782 6790 0
99 -6782 6783 0
-6783 6791 0
108 -6783 6784 0
-6784 6792 0
-125 -6784 6785 0
-6785 6793 0
-126 -6785 6786 0
-6786 6794 0
-127 -6786 6787 0
-6787 6795 0
-128 -6787 6788 0
-6788 6796 0
-129 -6788 0
89 6789 0
-6789 6797 0
99 -6789 6790 0
-6790 6798 0
108 -6790 6791 0
-6791 6799 0
-125 -6791 6792 0
-6792 6800 0
-126 -6792 6793 0
-6793 6801 0
-127 -6793 6794 0
-6794 6802 0
-128 -6794 6795 0
-6795 6803 0
-129 -6795 6796 0
-6796 6804 0
-130 -6796 0
99 6797 0
108 -6797 6798 0
-125 -6798 6799 0
-126 -6799 6800 0
-127 -6800 6801 0
-128 -6801 6802 0
-129 -6802 6803 0
-130 -6803 6804 0
-131 -6804 0
-10 6805 0
-6805 6806 0
-25 -6805 6807 0
-6807 6808 0
-40 -6807 6809 0
-6809 6810 0
-54 -6809 6811 0
-6811 6812 0
-67 -6811 6813 0
-6813 6814 0
-79 -6813 6815 0
-6815 6816 0
-90 -6815 6817 0
-6817 6818 0
-100 -6817 6819 0
-6819 6820 0
-109 -6819 0
-25 6806 0
-6806 6821 0
-40 -6806 6808 0
-6808 6822 0
-54 -6808 6810 0
-6810 6823 0
-67 -6810 6812 0
-6812 6824 0
-79 -6812 6814 0
-6814 6825 0
-90 -6814 6816 0
-6816 6826 0
-100 -6816 6818 0
-6818 6827 0
-109 -6818 6820 0
-6820 6828 0
-117 -6820 0
-40 6821 0
-6821 6829 0
-54 -6821 6822 0
-6822 6830 0
-67 -6822 6823 0
-6823 6831 0
-79 -6823 6824 0
-6824 6832 0
-90 -6824 6825 0
-6825 6833 0
-100 -6825 6826 0
-6826 6834 0
-109 -6826 6827 0
-6827 6835 0
-117 -6827 6828 0
-6828 6836 0
132 -6828 0
-54 6829 0
-6829 6837 0
-67 -6829 6830 0
-6830 6838 0
-79 -6830 6831 0
-6831 6839 0
-90 -6831 6832 0
-6832 6840 0
-100 -6832 6833 0
-6833 6841 0
-109 -6833 6834 0
-6834 6842 0
-117 -6834 6835 0
-6835 6843 0
132 -6835 6836 0
-6836 6844 0
133 -6836 0
-67 6837 0
-6837 6845 0
-79 -6837 6838 0
-6838 6846 0
-90 -6838 6839 0
-6839 6847 0
-100 -6839 6840 0
-6840 6848 0
-109 -6840 6841 0
-6841 6849 0
-117 -6841 6842 0
-6842 6850 0
132 -6842 6843 0
-6843 6851 0
133 -6843 6844 0
-6844 6852 0
134 -6844 0
-79 6845 0
-6845 6853 0
-90 -6845 6846 0
-6846 6854 0
-100 -6846 6847 0
-6847 6855 0
-109 -6847 6848 0
-6848 6856 0
-117 -6848 6849 0
-6849 6857 0
132 -6849 6850 0
-6850 6858 0
133 -6850 6851 0
-6851 6859 0
134 -6851 6852 0
-6852 6860 0
135 -6852 0
-90 6853 0
-6853 6861 0
-100 -6853 6854 0
-6854 6862 0
-109 -6854 6855 0
-6855 6863 0
-117 -6855 6856 0
-6856 6864 0
132 -6856 6857 0
-6857 6865 0
133 -6857 6858 0
-6858 6866 0
134 -6858 6859 0
-6859 6867 0
135 -6859 6860 0
-6860 6868 0
136 -6860 0
-100 6861 0
-109 -6861 6862 0
-117 -6862 6863 0
132 -6863 6864 0
133 -6864 6865 0
134 -6865 6866 0
135 -6866 6867 0
136 -6867 6868 0
137 -6868 0
10 6869 0
-6869 6870 0
25 -6869 6871 0
-6871 6872 0
40 -6871 6873 0
-6873 6874 0
54 -6873 6875 0
-6875 6876 0
67 -6875 6877 0
-6877 6878 0
79 -6877 6879 0
-6879 6880 0
90 -6879 6881 0
-6881 6882 0
100 -6881 6883 0
-6883 6884 0
109 -6883 0
25 6870 0
-6870 6885 0
40 -6870 6872 0
-6872 6886 0
54 -6872 6874 0
-6874 6887 0
67 -6874 6876 0
-6876 6888 0
79 -6876 6878 0
-6878 6889 0
90 -6878 6880 0
-6880 6890 0
100 -6880 6882 0
-6882 6891 0
109 -6882 6884 0
-6884 6892 0
117 -6884 0
40 6885 0
-6885 6893 0
54 -6885 6886 0
-6886 6894 0
67 -6886 6887 0
-6887 6895 0
79 -6887 6888 0
-6888 6896 0
90 -6888 6889 0
-6889 6897 0
100 -6889 6890 0
-6890 6898 0
109 -6890 6891 0
-6891 6899 0
117 -6891 6892 0
-6892 6900 0
-132 -6892 0
54 6893 0
-6893 6901 0
67 -6893 6894 0
-6894 6902 0
79 -6894 6895 0
-6895 6903 0
90 -6895 6896 0
-6896 6904 0
100 -6896 6897 0
-6897 6905 0
109 -6897 6898 0
-6898 6906 0
117 -6898 6899 0
-6899 6907 0
-132 -6899 6900 0
-6900 6908 0
-133 -6900 0
67 6901 0
-6901 6909 0
79 -6901 6902 0
-6902 6910 0
90 -6902 6903 0
-6903 6911 0
100 -6903 6904 0
-6904 6912 0
109 -6904 6905 0
-6905 6913 0
117 -6905 6906 0
-6906 6914 0
-132 -6906 6907 0
-6907 6915 0
-133 -6907 6908 0
-6908 6916 0
-134 -6908 0
79 6909 0
-6909 6917 0
90 -6909 6910 0
-6910 6918 0
100 -6910 6911 0
-6911 6919 0
109 -6911 6912 0
-6912 6920 0
117 -6912 6913 0
-6913 6921 0
-132 -6913 6914 0
-6914 6922 0
-133 -6914 6915 0
-6915 6923 0
-134 -6915 6916 0
-6916 6924 0
-135 -6916 0
90 6917 0
-6917 6925 0
100 -6917 6918 0
-6918 6926 0
109 -6918 6919 0
-6919 6927 0
117 -6919 6920 0
-6920 6928 0
-132 -6920 6921 0
-6921 6929 0
-133 -6921 6922 0
-6922 6930 0
-134 -6922 6923 0
-6923 6931 0
-135 -6923 6924 0
-6924 6932 0
-136 -6924 0
100 6925 0
109 -6925 6926 0
117 -6926 6927 0
-132 -6927 6928 0
-133 -6928 6929 0
-134 -6929 6930 0
-135 -6930 6931 0
-136 -6931 6932 0
-137 -6932 0
-11 6933 0
-6933 6934 0
-26 -6933 6935 0
-6935 6936 0
-41 -6935 6937 0
-6937 6938 0
-55 -6937 6939 0
-6939 6940 0
-68 -6939 6941 0
-6941 6942 0
-80 -6941 6943 0
-6943 6944 0
-91 -6943 6945 0
-6945 6946 0
-101 -6945 6947 0
-6947 6948 0
-110 -6947 0
-26 6934 0
-6934 6949 0
-41 -6934 6936 0
-6936 6950 0
-55 -6936 6938 0
-6938 6951 0
-68 -6938 6940 0
-6940 6952 0
-80 -6940 6942 0
-6942 6953 0
-91 -6942 6944 0
-6944 6954 0
-101 -6944 6946 0
-6946 6955 0
-110 -6946 6948 0
-6948 6956 0
-118 -6948 0
-41 6949 0
-6949 6957 0
-55 -6949 6950 0
-6950 6958 0
-68 -6950 6951 0
-6951 6959 0
-80 -6951 6952 0
-6952 6960 0
-91 -6952 6953 0
-6953 6961 0
-101 -6953 6954 0
-6954 6962 0
-110 -6954 6955 0
-6955 6963 0
-118 -6955 6956 0
-6956 6964 0
-125 -6956 0
-55 6957 0
-6957 6965 0
-68 -6957 6958 0
-6958 6966 0
-80 -6958 6959 0
-6959 6967 0
-91 -6959 6960 0
-6960 6968 0
-101 -6960 6961 0
-6961 6969 0
-110 -6961 6962 0
-6962 6970 0
-118 -6962 6963 0
-6963 6971 0
-125 -6963 6964 0
-6964 6972 0
138 -6964 0
-68 6965 0
-6965 6973 0
-80 -6965 6966 0
-6966 6974 0
-91 -6966 6967 0
-6967 6975 0
-101 -6967 6968 0
-6968 6976 0
-110 -6968 6969 0
-6969 6977 0
-118 -6969 6970 0
-6970 6978 0
-125 -6970 6971 0
-6971 6979 0
138 -6971 6972 0
-6972 6980 0
139 -6972 0
-80 6973 0
-6973 6981 0
-91 -6973 6974 0
-6974 6982 0
-101 -6974 6975 0
-6975 6983 0
-110 -6975 6976 0
-6976 6984 0
-118 -6976 6977 0
-6977 6985 0
-125 -6977 6978 0
-6978 6986 0
138 -6978 6979 0
-6979 6987 0
139 -6979 6980 0
-6980 6988 0
140 -6980 0
-91 6981 0
-6981 6989 0
-101 -6981 6982 0
-6982 6990 0
-110 -6982 6983 0
-6983 6991 0
-118 -6983 6984 0
-6984 6992 0
-125 -6984 6985 0
-6985 6993 0
138 -6985 6986 0
-6986 6994 0
139 -6986 6987 0
-6987 6995 0
140 -6987 6988 0
-6988 6996 0
141 -6988 0
-101 6989 0
-110 -6989 6990 0
-118 -6990 6991 0
-125 -6991 6992 0
138 -6992 6993 0
139 -6993 6994 0
140 -6994 6995 0
141 -6995 6996 0
142 -6996 0
11 6997 0
-6997 6998 0
26 -6997 6999 0
-6999 7000 0
41 -6999 7001 0
-7001 7002 0
55 -7001 7003 0
-7003 7004 0
68 -7003 7005 0
-7005 7006 0
80 -7005 7007 0
-7007 7008 0
91 -7007 7009 0
-7009 7010 0
101 -7009 7011 0
-7011 7012 0
110 -7011 0
26 6998 0
-6998 7013 0
41 -6998 7000 0
-7000 7014 0
55 -7000 7002 0
-7002 7015 0
68 -7002 7004 0
-7004 7016 0
80 -7004 7006 0
-7006 7017 0
91 -7006 7008 0
-7008 7018 0
101 -7008 7010 0
-7010 7019 0
110 -7010 7012 0
-7012 7020 0
118 -7012 0
41 7013 0
-7013 7021 0
55 -7013 7014 0
-7014 7022 0
68 -7014 7015 0
-7015 7023 0
80 -7015 7016 0
-7016 7024 0
91 -7016 7017 0
-7017 7025 0
101 -7017 7018 0
-7018 7026 0
110 -7018 7019 0
-7019 7027 0
118 -7019 7020 0
-7020 7028 0
125 -7020 0
55 7021 0
-7021 7029 0
68 -7021 7022 0
-7022 7030 0
80 -7022 7023 0
-7023 7031 0
91 -7023 7024 0
-7024 7032 0
101 -7024 7025 0
-7025 7033 0
110 -7025 7026 0
-7026 7034 0
118 -7026 7027 0
-7027 7035 0
125 -7027 7028 0
-7028 7036 0
-138 -7028 0
68 7029 0
-7029 7037 0
80 -7029 7030 0
-7030 7038 0
91 -7030 7031 0
-7031 7039 0
101 -7031 7032 0
-7032 7040 0
110 -7032 7033 0
-7033 7041 0
118 -7033 7034 0
-7034 7042 0
125 -7034 7035 0
-7035 7043 0
-138 -7035 7036 0
-7036 7044 0
-139 -7036 0
80 7037 0
-7037 7045 0
91 -7037 7038 0
-7038 7046 0
101 -7038 7039 0
-7039 7047 0
110 -7039 7040 0
-7040 7048 0
118 -7040 7041 0
-7041 7049 0
125 -7041 7042 0
-7042 7050 0
-138 -7042 7043 0
-7043 7051 0
-139 -7043 7044 0
-7044 7052 0
-140 -7044 0
91 7045 0
-7045 7053 0
101 -7045 7046 0
-7046 7054 0
110 -7046 7047 0
-7047 7055 0
118 -7047 7048 0
-7048 7056 0
125 -7048 7049 0
-7049 7057 0
-138 -7049 7050 0
-7050 7058 0
-139 -7050 7051 0
-7051 7059 0
-140 -7051 7052 0
-7052 7060 0
-141 -7052 0
101 7053 0
110 -7053 7054 0
118 -7054 7055 0
125 -7055 7056 0
-138 -7056 7057 0
-139 -7057 7058 0
-140 -7058 7059 0
-141 -7059 7060 0
-142 -7060 0
-12 7061 0
-7061 7062 0
-27 -7061 7063 0
-7063 7064 0
-42 -7063 7065 0
-7065 7066 0
-56 -7065 7067 0
-7067 7068 0
-69 -7067 7069 0
-7069 7070 0
-81 -7069 7071 0
-7071 7072 0
-92 -7071 7073 0
-7073 7074 0
-102 -7073 7075 0
-7075 7076 0
-111 -7075 0
-27 7062 0
-7062 7077 0
-42 -7062 7064 0
-7064 7078 0
-56 -7064 7066 0
-7066 7079 0
-69 -7066 7068 0
-7068 7080 0
-81 -7068 7070 0
-7070 7081 0
-92 -7070 7072 0
-7072 7082 0
-102 -7072 7074 0
-7074 7083 0
-111 -7074 7076 0
-7076 7084 0
-119 -7076 0
-42 7077 0
-7077 7085 0
-56 -7077 7078 0
-7078 7086 0
-69 -7078 7079 0
-7079 7087 0
-81 -7079 7080 0
-7080 7088 0
-92 -7080 7081 0
-7081 7089 0
-102 -7081 7082 0
-7082 7090 0
-111 -7082 7083 0
-7083 7091 0
-119 -7083 7084 0
-7084 7092 0
-126 -7084 0
-56 7085 0
-7085 7093 0
-69 -7085 7086 0
-7086 7094 0
-81 -7086 7087 0
-7087 7095 0
-92 -7087 7088 0
-7088 7096 0
-102 -7088 7089 0
-7089 7097 0
-111 -7089 7090 0
-7090 7098 0
-119 -7090 7091 0
-7091 7099 0
-126 -7091 7092 0
-7092 7100 0
-132 -7092 0
-69 7093 0
-7093 7101 0
-81 -7093 7094 0
-7094 7102 0
-92 -7094 7095 0
-7095 7103 0
-102 -7095 7096 0
-7096 7104 0
-111 -7096 7097 0
-7097 7105 0
-119 -7097 7098 0
-7098 7106 0
-126 -7098 7099 0
-7099 7107 0
-132 -7099 7100 0
-7100 7108 0
143 -7100 0
-81 7101 0
-7101 7109 0
-92 -7101 7102 0
-7102 7110 0
-102 -7102 7103 0
-7103 7111 0
-111 -7103 7104 0
-7104 7112 0
-119 -7104 7105 0
-7105 7113 0
-126 -7105 7106 0
-7106 7114 0
-132 -7106 7107 0
-7107 7115 0
143 -7107 7108 0
-7108 7116 0
144 -7108 0
-92 7109 0
-7109 7117 0
-102 -7109 7110 0
-7110 7118 0
-111 -7110 7111 0
-7111 7119 0
-119 -7111 7112 0
-7112 7120 0
-126 -7112 7113 0
-7113 7121 0
-132 -7113 7114 0
-7114 7122 0
143 -7114 7115 0
-7115 7123 0
144 -7115 7116 0
-7116 7124 0
145 -7116 0
-102 7117 0
-111 -7117 7118 0
-119 -7118 7119 0
-126 -7119 7120 0
-132 -7120 7121 0
143 -7121 7122 0
144 -7122 7123 0
145 -7123 7124 0
146 -7124 0
12 7125 0
-7125 7126 0
27 -7125 7127 0
-7127 7128 0
42 -7127 7129 0
-7129 7130 0
56 -7129 7131 0
-7131 7132 0
69 -7131 7133 0
-7133 7134 0
81 -7133 7135 0
-7135 7136 0
92 -7135 7137 0
-7137 7138 0
102 -7137 7139 0
-7139 7140 0
111 -7139 0
27 7126 0
-7126 7141 0
42 -7126 7128 0
-7128 7142 0
56 -7128 7130 0
-7130 7143 0
69 -7130 7132 0
-7132 7144 0
81 -7132 7134 0
-7134 7145 0
92 -7134 7136 0
-7136 7146 0
102 -7136 7138 0
-7138 7147 0
111 -7138 7140 0
-7140 7148 0
119 -7140 0
42 7141 0
-7141 7149 0
56 -7141 7142 0
-7142 7150 0
69 -7142 7143 0
-7143 7151 0
81 -7143 7144 0
-7144 7152 0
92 -7144 7145 0
-7145 7153 0
102 -7145 7146 0
-7146 7154 0
111 -7146 7147 0
-7147 7155 0
119 -7147 7148 0
-7148 7156 0
126 -7148 0
56 7149 0
-7149 7157 0
69 -7149 7150 0
-7150 7158 0
81 -7150 7151 0
-7151 7159 0
92 -7151 7152 0
-7152 7160 0
102 -7152 7153 0
-7153 7161 0
111 -7153 7154 0
-7154 7162 0
119 -7154 7155 0
-7155 7163 0
126 -7155 7156 0
-7156 7164 0
132 -7156 0
69 7157 0
-7157 7165 0
81 -7157 7158 0
-7158 7166 0
92 -7158 7159 0
-7159 7167 0
102 -7159 7160 0
-7160 7168 0
111 -7160 7161 0
-7161 7169 0
119 -7161 7162 0
-7162 7170 0
126 -7162 7163 0
-7163 7171 0
132 -7163 7164 0
-7164 7172 0
-143 -7164 0
81 7165 0
-7165 7173 0
92 -7165 7166 0
-7166 7174 0
102 -7166 7167 0
-7167 7175 0
111 -7167 7168 0
-7168 7176 0
119 -7168 7169 0
-7169 7177 0
126 -7169 7170 0
-7170 7178 0
132 -7170 7171 0
-7171 7179 0
-143 -7171 7172 0
-7172 7180 0
-144 -7172 0
92 7173 0
-7173 7181 0
102 -7173 7174 0
-7174 7182 0
111 -7174 7175 0
-7175 7183 0
119 -7175 7176 0
-7176 7184 0
126 -7176 7177 0
-7177 7185 0
132 -7177 7178 0
-7178 7186 0
-143 -7178 7179 0
-7179 7187 0
-144 -7179 7180 0
-7180 7188 0
-145 -7180 0
102 7181 0
111 -7181 7182 0
119 -7182 7183 0
126 -7183 7184 0
132 -7184 7185 0
-143 -7185 7186 0
-144 -7186 7187 0
-145 -7187 7188 0
-146 -7188 0
-13 7189 0
-7189 7190 0
-28 -7189 7191 0
-7191 7192 0
-43 -7191 7193 0
-7193 7194 0
-57 -7193 7195 0
-7195 7196 0
-70 -7195 7197 0
-7197 7198 0
-82 -7197 7199 0
-7199 7200 0
-93 -7199 7201 0
-7201 7202 0
-103 -7201 7203 0
-7203 7204 0
-112 -7203 0
-28 7190 0
-7190 7205 0
-43 -7190 7192 0
-7192 7206 0
-57 -7192 7194 0
-7194 7207 0
-70 -7194 7196 0
-7196 7208 0
-82 -7196 7198 0
-7198 7209 0
-93 -7198 7200 0
-7200 7210 0
-103 -7200 7202 0
-7202 7211 0
-112 -7202 7204 0
-7204 7212 0
-120 -7204 0
-43 7205 0
-7205 7213 0
-57 -7205 7206 0
-7206 7214 0
-70 -7206 7207 0
-7207 7215 0
-82 -7207 7208 0
-7208 7216 0
-93 -7208 7209 0
-7209 7217 0
-103 -7209 7210 0
-7210 7218 0
-112 -7210 7211 0
-7211 7219 0
-120 -7211 7212 0
-7212 7220 0
-127 -7212 0
-57 7213 0
-7213 7221 0
-70 -7213 7214 0
-7214 7222 0
-82 -7214 7215 0
-7215 7223 0
-93 -7215 7216 0
-7216 7224 0
-103 -7216 7217 0
-7217 7225 0
-112 -7217 7218 0
-7218 7226 0
-120 -7218 7219 0
-7219 7227 0
-127 -7219 7220 0
-7220 7228 0
-133 -7220 0
-70 7221 0
-7221 7229 0
-82 -7221 7222 0
-7222 7230 0
-93 -7222 7223 0
-7223 7231 0
-103 -7223 7224 0
-7224 7232 0
-112 -7224 7225 0
-7225 7233 0
-120 -7225 7226 0
-7226 7234 0
-127 -7226 7227 0
-7227 7235 0
-133 -7227 7228 0
-7228 7236 0
-138 -7228 0
-82 7229 0
-7229 7237 0
-93 -7229 7230 0
-7230 7238 0
-103 -7230 7231 0
-7231 7239 0
-112 -7231 7232 0
-7232 7240 0
-120 -7232 7233 0
-7233 7241 0
-127 -7233 7234 0
-7234 7242 0
-133 -7234 7235 0
-7235 7243 0
-138 -7235 7236 0
-7236 7244 0
147 -7236 0
-93 7237 0
-7237 7245 0
-103 -7237 7238 0
-7238 7246 0
-112 -7238 7239 0
-7239 7247 0
-120 -7239 7240 0
-7240 7248 0
-127 -7240 7241 0
-7241 7249 0
-133 -7241 7242 0
-7242 7250 0
-138 -7242 7243 0
-7243 7251 0
147 -7243 7244 0
-7244 7252 0
148 -7244 0
-103 7245 0
-112 -7245 7246 0
-120 -7246 7247 0
-127 -7247 7248 0
-133 -7248 7249 0
-138 -7249 7250 0
147 -7250 7251 0
148 -7251 7252 0
149 -7252 0
13 7253 0
-7253 7254 0
28 -7253 7255 0
-7255 7256 0
43 -7255 7257 0
-7257 7258 0
57 -7257 7259 0
-7259 7260 0
70 -7259 7261 0
-7261 7262 0
82 -7261 7263 0
-7263 7264 0
93 -7263 7265 0
-7265 7266 0
103 -7265 7267 0
-7267 7268 0
112 -7267 0
28 7254 0
-7254 7269 0
43 -7254 7256 0
-7256 7270 0
57 -7256 7258 0
-7258 7271 0
70 -7258 7260 0
-7260 7272 0
82 -7260 7262 0
-7262 7273 0
93 -7262 7264 0
-7264 7274 0
103 -7264 7266 0
-7266 7275 0
112 -7266 7268 0
-7268 7276 0
120 -7268 0
43 7269 0
-7269 7277 0
57 -7269 7270 0
-7270 7278 0
70 -7270 7271 0
-7271 7279 0
82 -7271 7272 0
-7272 7280 0
93 -7272 7273 0
-7273 7281 0
103 -7273 7274 0
-7274 7282 0
112 -7274 7275 0
-7275 7283 0
120 -7275 7276 0
-7276 7284 0
127 -7276 0
57 7277 0
-7277 7285 0
70 -7277 7278 0
-7278 7286 0
82 -7278 7279 0
-7279 7287 0
93 -7279 7280 0
-7280 7288 0
103 -7280 7281 0
-7281 7289 0
112 -7281 7282 0
-7282 7290 0
120 -7282 7283 0
-7283 7291 0
127 -7283 7284 0
-7284 7292 0
133 -7284 0
70 7285 0
-7285 7293 0
82 -7285 7286 0
-7286 7294 0
93 -7286 7287 0
-7287 7295 0
103 -7287 7288 0
-7288 7296 0
112 -7288 7289 0
-7289 7297 0
120 -7289 7290 0
-7290 7298 0
127 -7290 7291 0
-7291 7299 0
133 -7291 7292 0
-7292 7300 0
138 -7292 0
82 7293 0
-7293 7301 0
93 -7293 7294 0
-7294 7302 0
103 -7294 7295 0
-7295 7303 0
112 -7295 7296 0
-7296 7304 0
120 -7296 7297 0
-7297 7305 0
127 -7297 7298 0
-7298 7306 0
133 -7298 7299 0
-7299 7307 0
138 -7299 7300 0
-7300 7308 0
-147 -7300 0
93 7301 0
-7301 7309 0
103 -7301 7302 0
-7302 7310 0
112 -7302 7303 0
-7303 7311 0
120 -7303 7304 0
-7304 7312 0
127 -7304 7305 0
-7305 7313 0
133 -7305 7306 0
-7306 7314 0
138 -7306 7307 0
-7307 7315 0
-147 -7307 7308 0
-7308 7316 0
-148 -7308 0
103 7309 0
112 -7309 7310 0
120 -7310 7311 0
127 -7311 7312 0
133 -7312 7313 0
138 -7313 7314 0
-147 -7314 7315 0
-148 -7315 7316 0
-149 -7316 0
-14 7317 0
-7317 7318 0
-29 -7317 7319 0
-7319 7320 0
-44 -7319 7321 0
-7321 7322 0
-58 -7321 7323 0
-7323 7324 0
-71 -7323 7325 0
-7325 7326 0
-83 -7325 7327 0
-7327 7328 0
-94 -7327 7329 0
-7329 7330 0
-104 -7329 7331 0
-7331 7332 0
-113 -7331 0
-29 7318 0
-7318 7333 0
-44 -7318 7320 0
-7320 7334 0
-58 -7320 7322 0
-7322 7335 0
-71 -7322 7324 0
-7324 7336 0
-83 -7324 7326 0
-7326 7337 0
-94 -7326 7328 0
-7328 7338 0
-104 -7328 7330 0
-7330 7339 0
-113 -7330 7332 0
-7332 7340 0
-121 -7332 0
-44 7333 0
-7333 7341 0
-58 -7333 7334 0
-7334 7342 0
-71 -7334 7335 0
-7335 7343 0
-83 -7335 7336 0
-7336 7344 0
-94 -7336 7337 0
-7337 7345 0
-104 -7337 7338 0
-7338 7346 0
-113 -7338 7339 0
-7339 7347 0
-121 -7339 7340 0
-7340 7348 0
-128 -7340 0
-58 7341 0
-7341 7349 0
-71 -7341 7342 0
-7342 7350 0
-83 -7342 7343 0
-7343 7351 0
-94 -7343 7344 0
-7344 7352 0
-104 -7344 7345 0
-7345 7353 0
-113 -7345 7346 0
-7346 7354 0
-121 -7346 7347 0
-7347 7355 0
-128 -7347 7348 0
-7348 7356 0
-134 -7348 0
-71 7349 0
-7349 7357 0
-83 -7349 7350 0
-7350 7358 0
-94 -7350 7351 0
-7351 7359 0
-104 -7351 7352 0
-7352 7360 0
-113 -7352 7353 0
-7353 7361 0
-121 -7353 7354 0
-7354 7362 0
-128 -7354 7355 0
-7355 7363 0
-134 -7355 7356 0
-7356 7364 0
-139 -7356 0
-83 7357 0
-7357 7365 0
-94 -7357 7358 0
-7358 7366 0
-104 -7358 7359 0
-7359 7367 0
-113 -7359 7360 0
-7360 7368 0
-121 -7360 7361 0
-7361 7369 0
-128 -7361 7362 0
-7362 7370 0
-134 -7362 7363 0
-7363 7371 0
-139 -7363 7364 0
-7364 7372 0
-143 -7364 0
-94 7365 0
-7365 7373 0
-104 -7365 7366 0
-7366 7374 0
-113 -7366 7367 0
-7367 7375 0
-121 -7367 7368 0
-7368 7376 0
-128 -7368 7369 0
-7369 7377 0
-134 -7369 7370 0
-7370 7378 0
-139 -7370 7371 0
-7371 7379 0
-143 -7371 7372 0
-7372 7380 0
150 -7372 0
-104 7373 0
-113 -7373 7374 0
-121 -7374 7375 0
-128 -7375 7376 0
-134 -7376 7377 0
-139 -7377 7378 0
-143 -7378 7379 0
150 -7379 7380 0
151 -7380 0
14 7381 0
-7381 7382 0
29 -7381 7383 0
-7383 7384 0
44 -7383 7385 0
-7385 7386 0
58 -7385 7387 0
-7387 7388 0
71 -7387 7389 0
-7389 7390 0
83 -7389 7391 0
-7391 7392 0
94 -7391 7393 0
-7393 7394 0
104 -7393 7395 0
-7395 7396 0
113 -7395 0
29 7382 0
-7382 7397 0
44 -7382 7384 0
-7384 7398 0
58 -7384 7386 0
-7386 7399 0
71 -7386 7388 0
-7388 7400 0
83 -7388 7390 0
-7390 7401 0
94 -7390 7392 0
-7392 7402 0
104 -7392 7394 0
-7394 7403 0
113 -7394 7396 0
-7396 7404 0
121 -7396 0
44 7397 0
-7397 7405 0
58 -7397 7398 0
-7398 7406 0
71 -7398 7399 0
-7399 7407 0
83 -7399 7400 0
-7400 7408 0
94 -7400 7401 0
-7401 7409 0
104 -7401 7402 0
-7402 7410 0
113 -7402 7403 0
-7403 7411 0
121 -7403 7404 0
-7404 7412 0
128 -7404 0
58 7405 0
-7405 7413 0
71 -7405 7406 0
-7406 7414 0
83 -7406 7407 0
-7407 7415 0
94 -7407 7408 0
-7408 7416 0
104 -7408 7409 0
-7409 7417 0
113 -7409 7410 0
-7410 7418 0
121 -7410 7411 0
-7411 7419 0
128 -7411 7412 0
-7412 7420 0
134 -7412 0
71 7413 0
-7413 7421 0
83 -7413 7414 0
-7414 7422 0
94 -7414 7415 0
-7415 7423 0
104 -7415 7416 0
-7416 7424 0
113 -7416 7417 0
-7417 7425 0
121 -7417 7418 0
-7418 7426 0
128 -7418 7419 0
-7419 7427 0
134 -7419 7420 0
-7420 7428 0
139 -7420 0
83 7421 0
-7421 7429 0
94 -7421 7422 0
-7422 7430 0
104 -7422 7423 0
-7423 7431 0
113 -7423 7424 0
-7424 7432 0
121 -7424 7425 0
-7425 7433 0
128 -7425 7426 0
-7426 7434 0
134 -7426 7427 0
-7427 7435 0
139 -7427 7428 0
-7428 7436 0
143 -7428 0
94 7429 0
-7429 7437 0
104 -7429 7430 0
-7430 7438 0
113 -7430 7431 0
-7431 7439 0
121 -7431 7432 0
-7432 7440 0
128 -7432 7433 0
-7433 7441 0
134 -7433 7434 0
-7434 7442 0
139 -7434 7435 0
-7435 7443 0
143 -7435 7436 0
-7436 7444 0
-150 -7436 0
104 7437 0
113 -7437 7438 0
121 -7438 7439 0
128 -7439 7440 0
134 -7440 7441 0
139 -7441 7442 0
143 -7442 7443 0
-150 -7443 7444 0
-151 -7444 0
-15 7445 0
-7445 7446 0
-30 -7445 7447 0
-7447 7448 0
-45 -7447 7449 0
-7449 7450 0
-59 -7449 7451 0
-7451 7452 0
-72 -7451 7453 0
-7453 7454 0
-84 -7453 7455 0
-7455 7456 0
-95 -7455 7457 0
-7457 7458 0
-105 -7457 7459 0
-7459 7460 0
-114 -7459 0
-30 7446 0
-7446 7461 0
-45 -7446 7448 0
-7448 7462 0
-59 -7448 7450 0
-7450 7463 0
-72 -7450 7452 0
-7452 7464 0
-84 -7452 7454 0
-7454 7465 0
-95 -7454 7456 0
-7456 7466 0
-105 -7456 7458 0
-7458 7467 0
-114 -7458 7460 0
-7460 7468 0
-122 -7460 0
-45 7461 0
-7461 7469 0
-59 -7461 7462 0
-7462 7470 0
-72 -7462 7463 0
-7463 7471 0
-84 -7463 7464 0
-7464 7472 0
-95 -7464 7465 0
-7465 7473 0
-105 -7465 7466 0
-7466 7474 0
-114 -7466 7467 0
-7467 7475 0
-122 -7467 7468 0
-7468 7476 0
-129 -7468 0
-59 7469 0
-7469 7477 0
-72 -7469 7470 0
-7470 7478 0
-84 -7470 7471 0
-7471 7479 0
-95 -7471 7472 0
-7472 7480 0
-105 -7472 7473 0
-7473 7481 0
-114 -7473 7474 0
-7474 7482 0
-122 -7474 7475 0
-7475 7483 0
-129 -7475 7476 0
-7476 7484 0
-135 -7476 0
-72 7477 0
-7477 7485 0
-84 -7477 7478 0
-7478 7486 0
-95 -7478 7479 0
-7479 7487 0
-105 -7479 7480 0
-7480 7488 0
-114 -7480 7481 0
-7481 7489 0
-122 -7481 7482 0
-7482 7490 0
-129 -7482 7483 0
-7483 7491 0
-135 -7483 7484 0
-7484 7492 0
-140 -7484 0
-84 7485 0
-7485 7493 0
-95 -7485 7486 0
-7486 7494 0
-105 -7486 7487 0
-7487 7495 0
-114 -7487 7488 0
-7488 7496 0
-122 -7488 7489 0
-7489 7497 0
-129 -7489 7490 0
-7490 7498 0
-135 -7490 7491 0
-7491 7499 0
-140 -7491 7492 0
-7492 7500 0
-144 -7492 0
-95 7493 0
-7493 7501 0
-105 -7493 7494 0
-7494 7502 0
-114 -7494 7495 0
-7495 7503 0
-122 -7495 7496 0
-7496 7504 0
-129 -7496 7497 0
-7497 7505 0
-135 -7497 7498 0
-7498 7506 0
-140 -7498 7499 0
-7499 7507 0
-144 -7499 7500 0
-7500 7508 0
-147 -7500 0
-105 7501 0
-114 -7501 7502 0
-122 -7502 7503 0
-129 -7503 7504 0
-135 -7504 7505 0
-140 -7505 7506 0
-144 -7506 7507 0
-147 -7507 7508 0
152 -7508 0
15 7509 0
-7509 7510 0
30 -7509 7511 0
-7511 7512 0
45 -7511 7513 0
-7513 7514 0
59 -7513 7515 0
-7515 7516 0
72 -7515 7517 0
-7517 7518 0
84 -7517 7519 0
-7519 7520 0
95 -7519 7521 0
-7521 7522 0
105 -7521 7523 0
-7523 7524 0
114 -7523 0
30 7510 0
-7510 7525 0
45 -7510 7512 0
-7512 7526 0
59 -7512 7514 0
-7514 7527 0
72 -7514 7516 0
-7516 7528 0
84 -7516 7518 0
-7518 7529 0
95 -7518 7520 0
-7520 7530 0
105 -7520 7522 0
-7522 7531 0
114 -7522 7524 0
-7524 7532 0
122 -7524 0
45 7525 0
-7525 7533 0
59 -7525 7526 0
-7526 7534 0
72 -7526 7527 0
-7527 7535 0
84 -7527 7528 0
-7528 7536 0
95 -7528 7529 0
-7529 7537 0
105 -7529 7530 0
-7530 7538 0
114 -7530 7531 0
-7531 7539 0
122 -7531 7532 0
-7532 7540 0
129 -7532 0
59 7533 0
-7533 7541 0
72 -7533 7534 0
-7534 7542 0
84 -7534 7535 0
-7535 7543 0
95 -7535 7536 0
-7536 7544 0
105 -7536 7537 0
-7537 7545 0
114 -7537 7538 0
-7538 7546 0
122 -7538 7539 0
-7539 7547 0
129 -7539 7540 0
-7540 7548 0
135 -7540 0
72 7541 0
-7541 7549 0
84 -7541 7542 0
-7542 7550 0
95 -7542 7543 0
-7543 7551 0
105 -7543 7544 0
-7544 7552 0
114 -7544 7545 0
-7545 7553 0
122 -7545 7546 0
-7546 7554 0
129 -7546 7547 0
-7547 7555 0
135 -7547 7548 0
-7548 7556 0
140 -7548 0
84 7549 0
-7549 7557 0
95 -7549 7550 0
-7550 7558 0
105 -7550 7551 0
-7551 7559 0
114 -7551 7552 0
-7552 7560 0
122 -7552 7553 0
-7553 7561 0
129 -7553 7554 0
-7554 7562 0
135 -7554 7555 0
-7555 7563 0
140 -7555 7556 0
-7556 7564 0
144 -7556 0
95 7557 0
-7557 7565 0
105 -7557 7558 0
-7558 7566 0
114 -7558 7559 0
-7559 7567 0
122 -7559 7560 0
-7560 7568 0
129 -7560 7561 0
-7561 7569 0
135 -7561 7562 0
-7562 7570 0
140 -7562 7563 0
-7563 7571 0
144 -7563 7564 0
-7564 7572 0
147 -7564 0
105 7565 0
114 -7565 7566 0
122 -7566 7567 0
129 -7567 7568 0
135 -7568 7569 0
140 -7569 7570 0
144 -7570 7571 0
147 -7571 7572 0
-152 -7572 0
-16 7573 0
-7573 7574 0
-31 -7573 7575 0
-7575 7576 0
-46 -7575 7577 0
-7577 7578 0
-60 -7577 7579 0
-7579 7580 0
-73 -7579 7581 0
-7581 7582 0
-85 -7581 7583 0
-7583 7584 0
-96 -7583 7585 0
-7585 7586 0
-106 -7585 7587 0
-7587 7588 0
-115 -7587 0
-31 7574 0
-7574 7589 0
-46 -7574 7576 0
-7576 7590 0
-60 -7576 7578 0
-7578 7591 0
-73 -7578 7580 0
-7580 7592 0
-85 -7580 7582 0
-7582 7593 0
-96 -7582 7584 0
-7584 7594 0
-106 -7584 7586 0
-7586 7595 0
-115 -7586 7588 0
-7588 7596 0
-123 -7588 0
-46 7589 0
-7589 7597 0
-60 -7589 7590 0
-7590 7598 0
-73 -7590 7591 0
-7591 7599 0
-85 -7591 7592 0
-7592 7600 0
-96 -7592 7593 0
-7593 7601 0
-106 -7593 7594 0
-7594 7602 0
-115 -7594 7595 0
-7595 7603 0
-123 -7595 7596 0
-7596 7604 0
-130 -7596 0
-60 7597 0
-7597 7605 0
-73 -7597 7598 0
-7598 7606 0
-85 -7598 7599 0
-7599 7607 0
-96 -7599 7600 0
-7600 7608 0
-106 -7600 7601 0
-7601 7609 0
-115 -7601 7602 0
-7602 7610 0
-123 -7602 7603 0
-7603 7611 0
-130 -7603 7604 0
-7604 7612 0
-136 -7604 0
-73 7605 0
-7605 7613 0
-85 -7605 7606 0
-7606 7614 0
-96 -7606 7607 0
-7607 7615 0
-106 -7607 7608 0
-7608 7616 0
-115 -7608 7609 0
-7609 7617 0
-123 -7609 7610 0
-7610 7618 0
-130 -7610 7611 0
-7611 7619 0
-136 -7611 7612 0
-7612 7620 0
-141 -7612 0
-85 7613 0
-7613 7621 0
-96 -7613 7614 0
-7614 7622 0
-106 -7614 7615 0
-7615 7623 0
-115 -7615 7616 0
-7616 7624 0
-123 -7616 7617 0
-7617 7625 0
-130 -7617 7618 0
-7618 7626 0
-136 -7618 7619 0
-7619 7627 0
-141 -7619 7620 0
-7620 7628 0
-145 -7620 0
-96 7621 0
-7621 7629 0
-106 -7621 7622 0
-7622 7630 0
-115 -7622 7623 0
-7623 7631 0
-123 -7623 7624 0
-7624 7632 0
-130 -7624 7625 0
-7625 7633 0
-136 -7625 7626 0
-7626 7634 0
-141 -7626 7627 0
-7627 7635 0
-145 -7627 7628 0
-7628 7636 0
-148 -7628 0
-106 7629 0
-115 -7629 7630 0
-123 -7630 7631 0
-130 -7631 7632 0
-136 -7632 7633 0
-141 -7633 7634 0
-145 -7634 7635 0
-148 -7635 7636 0
-150 -7636 0
16 7637 0
-7637 7638 0
31 -7637 7639 0
-7639 7640 0
46 -7639 7641 0
-7641 7642 0
60 -7641 7643 0
-7643 7644 0
73 -7643 7645 0
-7645 7646 0
85 -7645 7647 0
-7647 7648 0
96 -7647 7649 0
-7649 7650 0
106 -7649 7651 0
-7651 7652 0
115 -7651 0
31 7638 0
-7638 7653 0
46 -7638 7640 0
-7640 7654 0
60 -7640 7642 0
-7642 7655 0
73 -7642 7644 0
-7644 7656 0
85 -7644 7646 0
-7646 7657 0
96 -7646 7648 0
-7648 7658 0
106 -7648 7650 0
-7650 7659 0
115 -7650 7652 0
-7652 7660 0
123 -7652 0
46 7653 0
-7653 7661 0
60 -7653 7654 0
-7654 7662 0
73 -7654 7655 0
-7655 7663 0
85 -7655 7656 0
-7656 7664 0
96 -7656 7657 0
-7657 7665 0
106 -7657 7658 0
-7658 7666 0
115 -7658 7659 0
-7659 7667 0
123 -7659 7660 0
-7660 7668 0
130 -7660 0
60 7661 0
-7661 7669 0
73 -7661 7662 0
-7662 7670 0
85 -7662 7663 0
-7663 7671 0
96 -7663 7664 0
-7664 7672 0
106 -7664 7665 0
-7665 7673 0
115 -7665 7666 0
-7666 7674 0
123 -7666 7667 0
-7667 7675 0
130 -7667 7668 0
-7668 7676 0
136 -7668 0
73 7669 0
-7669 7677 0
85 -7669 7670 0
-7670 7678 0
96 -7670 7671 0
-7671 7679 0
106 -7671 7672 0
-7672 7680 0
115 -7672 7673 0
-7673 7681 0
123 -7673 7674 0
-7674 7682 0
130 -7674 7675 0
-7675 7683 0
136 -7675 7676 0
-7676 7684 0
141 -7676 0
85 7677 0
-7677 7685 0
96 -7677 7678 0
-7678 7686 0
106 -7678 7679 0
-7679 7687 0
115 -7679 7680 0
-7680 7688 0
123 -7680 7681 0
-7681 7689 0
130 -7681 7682 0
-7682 7690 0
136 -7682 7683 0
-7683 7691 0
141 -7683 7684 0
-7684 7692 0
145 -7684 0
96 7685 0
-7685 7693 0
106 -7685 7686 0
-7686 7694 0
115 -7686 7687 0
-7687 7695 0
123 -7687 7688 0
-7688 7696 0
130 -7688 7689 0
-7689 7697 0
136 -7689 7690 0
-7690 7698 0
141 -7690 7691 0
-7691 7699 0
145 -7691 7692 0
-7692 7700 0
148 -7692 0
106 7693 0
115 -7693 7694 0
123 -7694 7695 0
130 -7695 7696 0
136 -7696 7697 0
141 -7697 7698 0
145 -7698 7699 0
148 -7699 7700 0
150 -7700 0
-32 7701 0
-7701 7702 0
-47 -7701 7703 0
-7703 7704 0
-61 -7703 7705 0
-7705 7706 0
-74 -7705 7707 0
-7707 7708 0
-86 -7707 7709 0
-7709 7710 0
-97 -7709 7711 0
-7711 7712 0
-107 -7711 7713 0
-7713 7714 0
-116 -7713 7715 0
-7715 7716 0
-124 -7715 0
-47 7702 0
-7702 7717 0
-61 -7702 7704 0
-7704 7718 0
-74 -7704 7706 0
-7706 7719 0
-86 -7706 7708 0
-7708 7720 0
-97 -7708 7710 0
-7710 7721 0
-107 -7710 7712 0
-7712 7722 0
-116 -7712 7714 0
-7714 7723 0
-124 -7714 7716 0
-7716 7724 0
-131 -7716 0
-61 7717 0
-7717 7725 0
-74 -7717 7718 0
-7718 7726 0
-86 -7718 7719 0
-7719 7727 0
-97 -7719 7720 0
-7720 7728 0
-107 -7720 7721 0
-7721 7729 0
-116 -7721 7722 0
-7722 7730 0
-124 -7722 7723 0
-7723 7731 0
-131 -7723 7724 0
-7724 7732 0
-137 -7724 0
-74 7725 0
-7725 7733 0
-86 -7725 7726 0
-7726 7734 0
-97 -7726 7727 0
-7727 7735 0
-107 -7727 7728 0
-7728 7736 0
-116 -7728 7729 0
-7729 7737 0
-124 -7729 7730 0
-7730 7738 0
-131 -7730 7731 0
-7731 7739 0
-137 -7731 7732 0
-7732 7740 0
-142 -7732 0
-86 7733 0
-7733 7741 0
-97 -7733 7734 0
-7734 7742 0
-107 -7734 7735 0
-7735 7743 0
-116 -7735 7736 0
-7736 7744 0
-124 -7736 7737 0
-7737 7745 0
-131 -7737 7738 0
-7738 7746 0
-137 -7738 7739 0
-7739 7747 0
-142 -7739 7740 0
-7740 7748 0
-146 -7740 0
-97 7741 0
-7741 7749 0
-107 -7741 7742 0
-7742 7750 0
-116 -7742 7743 0
-7743 7751 0
-124 -7743 7744 0
-7744 7752 0
-131 -7744 7745 0
-7745 7753 0
-137 -7745 7746 0
-7746 7754 0
-142 -7746 7747 0
-7747 7755 0
-146 -7747 7748 0
-7748 7756 0
-149 -7748 0
-107 7749 0
-7749 7757 0
-116 -7749 7750 0
-7750 7758 0
-124 -7750 7751 0
-7751 7759 0
-131 -7751 7752 0
-7752 7760 0
-137 -7752 7753 0
-7753 7761 0
-142 -7753 7754 0
-7754 7762 0
-146 -7754 7755 0
-7755 7763 0
-149 -7755 7756 0
-7756 7764 0
-151 -7756 0
-116 7757 0
-124 -7757 7758 0
-131 -7758 7759 0
-137 -7759 7760 0
-142 -7760 7761 0
-146 -7761 7762 0
-149 -7762 7763 0
-151 -7763 7764 0
-152 -7764 0
32 7765 0
-7765 7766 0
47 -7765 7767 0
-7767 7768 0
61 -7767 7769 0
-7769 7770 0
74 -7769 7771 0
-7771 7772 0
86 -7771 7773 0
-7773 7774 0
97 -7773 7775 0
-7775 7776 0
107 -7775 7777 0
-7777 7778 0
116 -7777 7779 0
-7779 7780 0
124 -7779 0
47 7766 0
-7766 7781 0
61 -7766 7768 0
-7768 7782 0
74 -7768 7770 0
-7770 7783 0
86 -7770 7772 0
-7772 7784 0
97 -7772 7774 0
-7774 7785 0
107 -7774 7776 0
-7776 7786 0
116 -7776 7778 0
-7778 7787 0
124 -7778 7780 0
-7780 7788 0
131 -7780 0
61 7781 0
-7781 7789 0
74 -7781 7782 0
-7782 7790 0
86 -7782 7783 0
-7783 7791 0
97 -7783 7784 0
-7784 7792 0
107 -7784 7785 0
-7785 7793 0
116 -7785 7786 0
-7786 7794 0
124 -7786 7787 0
-7787 7795 0
131 -7787 7788 0
-7788 7796 0
137 -7788 0
74 7789 0
-7789 7797 0
86 -7789 7790 0
-7790 7798 0
97 -7790 7791 0
-7791 7799 0
107 -7791 7792 0
-7792 7800 0
116 -7792 7793 0
-7793 7801 0
124 -7793 7794 0
-7794 7802 0
131 -7794 7795 0
-7795 7803 0
137 -7795 7796 0
-7796 7804 0
142 -7796 0
86 7797 0
-7797 7805 0
97 -7797 7798 0
-7798 7806 0
107 -7798 7799 0
-7799 7807 0
116 -7799 7800 0
-7800 7808 0
124 -7800 7801 0
-7801 7809 0
131 -7801 7802 0
-7802 7810 0
137 -7802 7803 0
-7803 7811 0
142 -7803 7804 0
-7804 7812 0
146 -7804 0
97 7805 0
-7805 7813 0
107 -7805 7806 0
-7806 7814 0
116 -7806 7807 0
-7807 7815 0
124 -7807 7808 0
-7808 7816 0
131 -7808 7809 0
-7809 7817 0
137 -7809 7810 0
-7810 7818 0
142 -7810 7811 0
-7811 7819 0
146 -7811 7812 0
-7812 7820 0
149 -7812 0
107 7813 0
-7813 7821 0
116 -7813 7814 0
-7814 7822 0
124 -7814 7815 0
-7815 7823 0
131 -7815 7816 0
-7816 7824 0
137 -7816 7817 0
-7817 7825 0
142 -7817 7818 0
-7818 7826 0
146 -7818 7819 0
-7819 7827 0
149 -7819 7820 0
-7820 7828 0
151 -7820 0
116 7821 0
124 -7821 7822 0
131 -7822 7823 0
137 -7823 7824 0
142 -7824 7825 0
146 -7825 7826 0
149 -7826 7827 0
151 -7827 7828 0
152 -7828 0
5055 7829 0
-7829 7830 0
5056 -7829 7831 0
-7831 7832 0
5057 -7831 7833 0
-7833 7834 0
5058 -7833 7835 0
-7835 7836 0
5059 -7835 7837 0
-7837 7838 0
5060 -7837 7839 0
-7839 7840 0
5061 -7839 7841 0
-7841 7842 0
5062 -7841 7843 0
-7843 7844 0
5063 -7843 7845 0
-7845 7846 0
5064 -7845 7847 0
-7847 7848 0
5065 -7847 7849 0
-7849 7850 0
5066 -7849 7851 0
-7851 7852 0
5067 -7851 7853 0
-7853 7854 0
5068 -7853 7855 0
-7855 7856 0
5069 -7855 7857 0
-7857 7858 0
5070 -7857 0
5056 7830 0
-7830 7859 0
5057 -7830 7832 0
-7832 7860 0
5058 -7832 7834 0
-7834 7861 0
5059 -7834 7836 0
-7836 7862 0
5060 -7836 7838 0
-7838 7863 0
5061 -7838 7840 0
-7840 7864 0
5062 -7840 7842 0
-7842 7865 0
5063 -7842 7844 0
-7844 7866 0
5064 -7844 7846 0
-7846 7867 0
5065 -7846 7848 0
-7848 7868 0
5066 -7848 7850 0
-7850 7869 0
5067 -7850 7852 0
-7852 7870 0
5068 -7852 7854 0
-7854 7871 0
5069 -7854 7856 0
-7856 7872 0
5070 -7856 7858 0
-7858 7873 0
5071 -7858 0
5057 7859 0
5058 -7859 7860 0
5059 -7860 7861 0
5060 -7861 7862 0
5061 -7862 7863 0
5062 -7863 7864 0
5063 -7864 7865 0
5064 -7865 7866 0
5065 -7866 7867 0
5066 -7867 7868 0
5067 -7868 7869 0
5068 -7869 7870 0
5069 -7870 7871 0
5070 -7871 7872 0
5071 -7872 7873 0
5072 -7873 0
-5055 7874 0
-7874 7875 0
-5056 -7874 7876 0
-7876 7877 0
-5057 -7876 7878 0
-7878 7879 0
-5058 -7878 0
-5056 7875 0
-7875 7880 0
-5057 -7875 7877 0
-7877 7881 0
-5058 -7877 7879 0
-7879 7882 0
-5059 -7879 0
-5057 7880 0
-7880 7883 0
-5058 -7880 7881 0
-7881 7884 0
-5059 -7881 7882 0
-7882 7885 0
-5060 -7882 0
-5058 7883 0
-7883 7886 0
-5059 -7883 7884 0
-7884 7887 0
-5060 -7884 7885 0
-7885 7888 0
-5061 -7885 0
-5059 7886 0
-7886 7889 0
-5060 -7886 7887 0
-7887 7890 0
-5061 -7887 7888 0
-7888 7891 0
-5062 -7888 0
-5060 7889 0
-7889 7892 0
-5061 -7889 7890 0
-7890 7893 0
-5062 -7890 7891 0
-7891 7894 0
-5063 -7891 0
-5061 7892 0
-7892 7895 0
-5062 -7892 7893 0
-7893 7896 0
-5063 -7893 7894 0
-7894 7897 0
-5064 -7894 0
-5062 7895 0
-7895 7898 0
-5063 -7895 7896 0
-7896 7899 0
-5064 -7896 7897 0
-7897 7900 0
-5065 -7897 0
-5063 7898 0
-7898 7901 0
-5064 -7898 7899 0
-7899 7902 0
-5065 -7899 7900 0
-7900 7903 0
-5066 -7900 0
-5064 7901 0
-7901 7904 0
-5065 -7901 7902 0
-7902 7905 0
-5066 -7902 7903 0
-7903 7906 0
-5067 -7903 0
-5065 7904 0
-7904 7907 0
-5066 -7904 7905 0
-7905 7908 0
-5067 -7905 7906 0
-7906 7909 0
-5068 -7906 0
-5066 7907 0
-7907 7910 0
-5067 -7907 7908 0
-7908 7911 0
-5068 -7908 7909 0
-7909 7912 0
-5069 -7909 0
-5067 7910 0
-7910 7913 0
-5068 -7910 7911 0
-7911 7914 0
-5069 -7911 7912 0
-7912 7915 0
-5070 -7912 0
-5068 7913 0
-7913 7916 0
-5069 -7913 7914 0
-7914 7917 0
-5070 -7914 7915 0
-7915 7918 0
-5071 -7915 0
-5069 7916 0
-5070 -7916 7917 0
-5071 -7917 7918 0
-5072 -7918 0
5073 7919 0
-7919 7920 0
5074 -7919 7921 0
-7921 7922 0
5075 -7921 7923 0
-7923 7924 0
5076 -7923 7925 0
-7925 7926 0
5077 -7925 7927 0
-7927 7928 0
5078 -7927 7929 0
-7929 7930 0
5079 -7929 7931 0
-7931 7932 0
5080 -7931 7933 0
-7933 7934 0
5081 -7933 7935 0
-7935 7936 0
5082 -7935 7937 0
-7937 7938 0
5083 -7937 7939 0
-7939 7940 0
5084 -7939 7941 0
-7941 7942 0
5085 -7941 7943 0
-7943 7944 0
5086 -7943 7945 0
-7945 7946 0
5087 -7945 7947 0
-7947 7948 0
5088 -7947 0
5074 7920 0
-7920 7949 0
5075 -7920 7922 0
-7922 7950 0
5076 -7922 7924 0
-7924 7951 0
5077 -7924 7926 0
-7926 7952 0
5078 -7926 7928 0
-7928 7953 0
5079 -7928 7930 0
-7930 7954 0
5080 -7930 7932 0
-7932 7955 0
5081 -7932 7934 0
-7934 7956 0
5082 -7934 7936 0
-7936 7957 0
5083 -7936 7938 0
-7938 7958 0
5084 -7938 7940 0
-7940 7959 0
5085 -7940 7942 0
-7942 7960 0
5086 -7942 7944 0
-7944 7961 0
5087 -7944 7946 0
-7946 7962 0
5088 -7946 7948 0
-7948 7963 0
5089 -7948 0
5075 7949 0
5076 -7949 7950 0
5077 -7950 7951 0
5078 -7951 7952 0
5079 -7952 7953 0
5080 -7953 7954 0
5081 -7954 7955 0
5082 -7955 7956 0
5083 -7956 7957 0
5084 -7957 7958 0
5085 -7958 7959 0
5086 -7959 7960 0
5087 -7960 7961 0
5088 -7961 7962 0
5089 -7962 7963 0
5090 -7963 0
-5073 7964 0
-7964 7965 0
-5074 -7964 7966 0
-7966 7967 0
-5075 -7966 7968 0
-7968 7969 0
-5076 -7968 0
-5074 7965 0
-7965 7970 0
-5075 -7965 7967 0
-7967 7971 0
-5076 -7967 7969 0
-7969 7972 0
-5077 -7969 0
-5075 7970 0
-7970 7973 0
-5076 -7970 7971 0
-7971 7974 0
-5077 -7971 7972 0
-7972 7975 0
-5078 -7972 0
-5076 7973 0
-7973 7976 0
-5077 -7973 7974 0
-7974 7977 0
-5078 -7974 7975 0
-7975 7978 0
-5079 -7975 0
-5077 7976 0
-7976 7979 0
-5078 -7976 7977 0
-7977 7980 0
-5079 -7977 7978 0
-7978 7981 0
-5080 -7978 0
-5078 7979 0
-7979 7982 0
-5079 -7979 7980 0
-7980 7983 0
-5080 -7980 7981 0
-7981 7984 0
-5081 -7981 0
-5079 7982 0
-7982 7985 0
-5080 -7982 7983 0
-7983 7986 0
-5081 -7983 7984 0
-7984 7987 0
-5082 -7984 0
-5080 7985 0
-7985 7988 0
-5081 -7985 7986 0
-7986 7989 0
-5082 -7986 7987 0
-7987 7990 0
-5083 -7987 0
-5081 7988 0
-7988 7991 0
-5082 -7988 7989 0
-7989 7992 0
-5083 -7989 7990 0
-7990 7993 0
-5084 -7990 0
-5082 7991 0
-7991 7994 0
-5083 -7991 7992 0
-7992 7995 0
-5084 -7992 7993 0
-7993 7996 0
-5085 -7993 0
-5083 7994 0
-7994 7997 0
-5084 -7994 7995 0
-7995 7998 0
-5085 -7995 7996 0
-7996 7999 0
-5086 -7996 0
-5084 7997 0
-7997 8000 0
-5085 -7997 7998 0
-7998 8001 0
-5086 -7998 7999 0
-7999 8002 0
-5087 -7999 0
-5085 8000 0
-8000 8003 0
-5086 -8000 8001 0
-8001 8004 0
-5087 -8001 8002 0
-8002 8005 0
-5088 -8002 0
-5086 8003 0
-8003 8006 0
-5087 -8003 8004 0
-8004 8007 0
-5088 -8004 8005 0
-8005 8008 0
-5089 -8005 0
-5087 8006 0
-5088 -8006 8007 0
-5089 -8007 8008 0
-5090 -8008 0
5091 8009 0
-8009 8010 0
5092 -8009 8011 0
-8011 8012 0
5093 -8011 8013 0
-8013 8014 0
5094 -8013 8015 0
-8015 8016 0
5095 -8015 8017 0
-8017 8018 0
5096 -8017 8019 0
-8019 8020 0
5097 -8019 8021 0
-8021 8022 0
5098 -8021 8023 0
-8023 8024 0
5099 -8023 8025 0
-8025 8026 0
5100 -8025 8027 0
-8027 8028 0
5101 -8027 8029 0
-8029 8030 0
5102 -8029 8031 0
-8031 8032 0
5103 -8031 8033 0
-8033 8034 0
5104 -8033 8035 0
-8035 8036 0
5105 -8035 8037 0
-8037 8038 0
5106 -8037 0
5092 8010 0
-8010 8039 0
5093 -8010 8012 0
-8012 8040 0
5094 -8012 8014 0
-8014 8041 0
5095 -8014 8016 0
-8016 8042 0
5096 -8016 8018 0
-8018 8043 0
5097 -8018 8020 0
-8020 8044 0
5098 -8020 8022 0
-8022 8045 0
5099 -8022 8024 0
-8024 8046 0
5100 -8024 8026 0
-8026 8047 0
5101 -8026 8028 0
-8028 8048 0
5102 -8028 8030 0
-8030 8049 0
5103 -8030 8032 0
-8032 8050 0
5104 -8032 8034 0
-8034 8051 0
5105 -8034 8036 0
-8036 8052 0
5106 -8036 8038 0
-8038 8053 0
5107 -8038 0
5093 8039 0
5094 -8039 8040 0
5095 -8040 8041 0
5096 -8041 8042 0
5097 -8042 8043 0
5098 -8043 8044 0
5099 -8044 8045 0
5100 -8045 8046 0
5101 -8046 8047 0
5102 -8047 8048 0
5103 -8048 8049 0
5104 -8049 8050 0
5105 -8050 8051 0
5106 -8051 8052 0
5107 -8052 8053 0
5108 -8053 0
-5091 8054 0
-8054 8055 0
-5092 -8054 8056 0
-8056 8057 0
-5093 -8056 8058 0
-8058 8059 0
-5094 -8058 0
-5092 8055 0
-8055 8060 0
-5093 -8055 8057 0
-8057 8061 0
-5094 -8057 8059 0
-8059 8062 0
-5095 -8059 0
-5093 8060 0
-8060 8063 0
-5094 -8060 8061 0
-8061 8064 0
-5095 -8061 8062 0
-8062 8065 0
-5096 -8062 0
-5094 8063 0
-8063 8066 0
-5095 -8063 8064 0
-8064 8067 0
-5096 -8064 8065 0
-8065 8068 0
-5097 -8065 0
-5095 8066 0
-8066 8069 0
-5096 -8066 8067 0
-8067 8070 0
-5097 -8067 8068 0
-8068 8071 0
-5098 -8068 0
-5096 8069 0
-8069 8072 0
-5097 -8069 8070 0
-8070 8073 0
-5098 -8070 8071 0
-8071 8074 0
-5099 -8071 0
-5097 8072 0
-8072 8075 0
-5098 -8072 8073 0
-8073 8076 0
-5099 -8073 8074 0
-8074 8077 0
-5100 -8074 0
-5098 8075 0
-8075 8078 0
-5099 -8075 8076 0
-8076 8079 0
-5100 -8076 8077 0
-8077 8080 0
-5101 -8077 0
-5099 8078 0
-8078 8081 0
-5100 -8078 8079 0
-8079 8082 0
-5101 -8079 8080 0
-8080 8083 0
-5102 -8080 0
-5100 8081 0
-8081 8084 0
-5101 -8081 8082 0
-8082 8085 0
-5102 -8082 8083 0
-8083 8086 0
-5103 -8083 0
-5101 8084 0
-8084 8087 0
-5102 -8084 8085 0
-8085 8088 0
-5103 -8085 8086 0
-8086 8089 0
-5104 -8086 0
-5102 8087 0
-8087 8090 0
-5103 -8087 8088 0
-8088 8091 0
-5104 -8088 8089 0
-8089 8092 0
-5105 -8089 0
-5103 8090 0
-8090 8093 0
-5104 -8090 8091 0
-8091 8094 0
-5105 -8091 8092 0
-8092 8095 0
-5106 -8092 0
-5104 8093 0
-8093 8096 0
-5105 -8093 8094 0
-8094 8097 0
-5106 -8094 8095 0
-8095 8098 0
-5107 -8095 0
-5105 8096 0
-5106 -8096 8097 0
-5107 -8097 8098 0
-5108 -8098 0
5109 8099 0
-8099 8100 0
5110 -8099 8101 0
-8101 8102 0
5111 -8101 8103 0
-8103 8104 0
5112 -8103 8105 0
-8105 8106 0
5113 -8105 8107 0
-8107 8108 0
5114 -8107 8109 0
-8109 8110 0
5115 -8109 8111 0
-8111 8112 0
5116 -8111 8113 0
-8113 8114 0
5117 -8113 8115 0
-8115 8116 0
5118 -8115 8117 0
-8117 8118 0
5119 -8117 8119 0
-8119 8120 0
5120 -8119 8121 0
-8121 8122 0
5121 -8121 8123 0
-8123 8124 0
5122 -8123 8125 0
-8125 8126 0
5123 -8125 8127 0
-8127 8128 0
5124 -8127 0
5110 8100 0
-8100 8129 0
5111 -8100 8102 0
-8102 8130 0
5112 -8102 8104 0
-8104 8131 0
5113 -8104 8106 0
-8106 8132 0
5114 -8106 8108 0
-8108 8133 0
5115 -8108 8110 0
-8110 8134 0
5116 -8110 8112 0
-8112 8135 0
5117 -8112 8114 0
-8114 8136 0
5118 -8114 8116 0
-8116 8137 0
5119 -8116 8118 0
-8118 8138 0
5120 -8118 8120 0
-8120 8139 0
5121 -8120 8122 0
-8122 8140 0
5122 -8122 8124 0
-8124 8141 0
5123 -8124 8126 0
-8126 8142 0
5124 -8126 8128 0
-8128 8143 0
5125 -8128 0
5111 8129 0
5112 -8129 8130 0
5113 -8130 8131 0
5114 -8131 8132 0
5115 -8132 8133 0
5116 -8133 8134 0
5117 -8134 8135 0
5118 -8135 8136 0
5119 -8136 8137 0
5120 -8137 8138 0
5121 -8138 8139 0
5122 -8139 8140 0
5123 -8140 8141 0
5124 -8141 8142 0
5125 -8142 8143 0
5126 -8143 0
-5109 8144 0
-8144 8145 0
-5110 -8144 8146 0
-8146 8147 0
-5111 -8146 8148 0
-8148 8149 0
-5112 -8148 0
-5110 8145 0
-8145 8150 0
-5111 -8145 8147 0
-8147 8151 0
-5112 -8147 8149 0
-8149 8152 0
-5113 -8149 0
-5111 8150 0
-8150 8153 0
-5112 -8150 8151 0
-8151 8154 0
-5113 -8151 8152 0
-8152 8155 0
-5114 -8152 0
-5112 8153 0
-8153 8156 0
-5113 -8153 8154 0
-8154 8157 0
-5114 -8154 8155 0
-8155 8158 0
-5115 -8155 0
-5113 8156 0
-8156 8159 0
-5114 -8156 8157 0
-8157 8160 0
-5115 -8157 8158 0
-8158 8161 0
-5116 -8158 0
-5114 8159 0
-8159 8162 0
-5115 -8159 8160 0
-8160 8163 0
-5116 -8160 8161 0
-8161 8164 0
-5117 -8161 0
-5115 8162 0
-8162 8165 0
-5116 -8162 8163 0
-8163 8166 0
-5117 -8163 8164 0
-8164 8167 0
-5118 -8164 0
-5116 8165 0
-8165 8168 0
-5117 -8165 8166 0
-8166 8169 0
-5118 -8166 8167 0
-8167 8170 0
-5119 -8167 0
-5117 8168 0
-8168 8171 0
-5118 -8168 8169 0
-8169 8172 0
-5119 -8169 8170 0
-8170 8173 0
-5120 -8170 0
-5118 8171 0
-8171 8174 0
-5119 -8171 8172 0
-8172 8175 0
-5120 -8172 8173 0
-8173 8176 0
-5121 -8173 0
-5119 8174 0
-8174 8177 0
-5120 -8174 8175 0
-8175 8178 0
-5121 -8175 8176 0
-8176 8179 0
-5122 -8176 0
-5120 8177 0
-8177 8180 0
-5121 -8177 8178 0
-8178 8181 0
-5122 -8178 8179 0
-8179 8182 0
-5123 -8179 0
-5121 8180 0
-8180 8183 0
-5122 -8180 8181 0
-8181 8184 0
-5123 -8181 8182 0
-8182 8185 0
-5124 -8182 0
-5122 8183 0
-8183 8186 0
-5123 -8183 8184 0
-8184 8187 0
-5124 -8184 8185 0
-8185 8188 0
-5125 -8185 0
-5123 8186 0
-5124 -8186 8187 0
-5125 -8187 8188 0
-5126 -8188 0
5127 8189 0
-8189 8190 0
5128 -8189 8191 0
-8191 8192 0
5129 -8191 8193 0
-8193 8194 0
5130 -8193 8195 0
-8195 8196 0
5131 -8195 8197 0
-8197 8198 0
5132 -8197 8199 0
-8199 8200 0
5133 -8199 8201 0
-8201 8202 0
5134 -8201 8203 0
-8203 8204 0
5135 -8203 8205 0
-8205 8206 0
5136 -8205 8207 0
-8207 8208 0
5137 -8207 8209 0
-8209 8210 0
5138 -8209 8211 0
-8211 8212 0
5139 -8211 8213 0
-8213 8214 0
5140 -8213 8215 0
-8215 8216 0
5141 -8215 8217 0
-8217 8218 0
5142 -8217 0
5128 8190 0
-8190 8219 0
5129 -8190 8192 0
-8192 8220 0
5130 -8192 8194 0
-8194 8221 0
5131 -8194 8196 0
-8196 8222 0
5132 -8196 8198 0
-8198 8223 0
5133 -8198 8200 0
-8200 8224 0
5134 -8200 8202 0
-8202 8225 0
5135 -8202 8204 0
-8204 8226 0
5136 -8204 8206 0
-8206 8227 0
5137 -8206 8208 0
-8208 8228 0
5138 -8208 8210 0
-8210 8229 0
5139 -8210 8212 0
-8212 8230 0
5140 -8212 8214 0
-8214 8231 0
5141 -8214 8216 0
-8216 8232 0
5142 -8216 8218 0
-8218 8233 0
5143 -8218 0
5129 8219 0
5130 -8219 8220 0
5131 -8220 8221 0
5132 -8221 8222 0
5133 -8222 8223 0
5134 -8223 8224 0
5135 -8224 8225 0
5136 -8225 8226 0
5137 -8226 8227 0
5138 -8227 8228 0
5139 -8228 8229 0
5140 -8229 8230 0
5141 -8230 8231 0
5142 -8231 8232 0
5143 -8232 8233 0
5144 -8233 0
-5127 8234 0
-8234 8235 0
-5128 -8234 8236 0
-8236 8237 0
-5129 -8236 8238 0
-8238 8239 0
-5130 -8238 0
-5128 8235 0
-8235 8240 0
-5129 -8235 8237 0
-8237 8241 0
-5130 -8237 8239 0
-8239 8242 0
-5131 -8239 0
-5129 8240 0
-8240 8243 0
-5130 -8240 8241 0
-8241 8244 0
-5131 -8241 8242 0
-8242 8245 0
-5132 -8242 0
-5130 8243 0
-8243 8246 0
-5131 -8243 8244 0
-8244 8247 0
-5132 -8244 8245 0
-8245 8248 0
-5133 -8245 0
-5131 8246 0
-8246 8249 0
-5132 -8246 8247 0
-8247 8250 0
-5133 -8247 8248 0
-8248 8251 0
-5134 -8248 0
-5132 8249 0
-8249 8252 0
-5133 -8249 8250 0
-8250 8253 0
-5134 -8250 8251 0
-8251 8254 0
-5135 -8251 0
-5133 8252 0
-8252 8255 0
-5134 -8252 8253 0
-8253 8256 0
-5135 -8253 8254 0
-8254 8257 0
-5136 -8254 0
-5134 8255 0
-8255 8258 0
-5135 -8255 8256 0
-8256 8259 0
-5136 -8256 8257 0
-8257 8260 0
-5137 -8257 0
-5135 8258 0
-8258 8261 0
-5136 -8258 8259 0
-8259 8262 0
-5137 -8259 8260 0
-8260 8263 0
-5138 -8260 0
-5136 8261 0
-8261 8264 0
-5137 -8261 8262 0
-8262 8265 0
-5138 -8262 8263 0
-8263 8266 0
-5139 -8263 0
-5137 8264 0
-8264 8267 0
-5138 -8264 8265 0
-8265 8268 0
-5139 -8265 8266 0
-8266 8269 0
-5140 -8266 0
-5138 8267 0
-8267 8270 0
-5139 -8267 8268 0
-8268 8271 0
-5140 -8268 8269 0
-8269 8272 0
-5141 -8269 0
-5139 8270 0
-8270 8273 0
-5140 -8270 8271 0
-8271 8274 0
-5141 -8271 8272 0
-8272 8275 0
-5142 -8272 0
-5140 8273 0
-8273 8276 0
-5141 -8273 8274 0
-8274 8277 0
-5142 -8274 8275 0
-8275 8278 0
-5143 -8275 0
-5141 8276 0
-5142 -8276 8277 0
-5143 -8277 8278 0
-5144 -8278 0
5145 8279 0
-8279 8280 0
5146 -8279 8281 0
-8281 8282 0
5147 -8281 8283 0
-8283 8284 0
5148 -8283 8285 0
-8285 8286 0
5149 -8285 8287 0
-8287 8288 0
5150 -8287 8289 0
-8289 8290 0
5151 -8289 8291 0
-8291 8292 0
5152 -8291 8293 0
-8293 8294 0
5153 -8293 8295 0
-8295 8296 0
5154 -8295 8297 0
-8297 8298 0
5155 -8297 8299 0
-8299 8300 0
5156 -8299 8301 0
-8301 8302 0
5157 -8301 8303 0
-8303 8304 0
5158 -8303 8305 0
-8305 8306 0
5159 -8305 8307 0
-8307 8308 0
5160 -8307 0
5146 8280 0
-8280 8309 0
5147 -8280 8282 0
-8282 8310 0
5148 -8282 8284 0
-8284 8311 0
5149 -8284 8286 0
-8286 8312 0
5150 -8286 8288 0
-8288 8313 0
5151 -8288 8290 0
-8290 8314 0
5152 -8290 8292 0
-8292 8315 0
5153 -8292 8294 0
-8294 8316 0
5154 -8294 8296 0
-8296 8317 0
5155 -8296 8298 0
-8298 8318 0
5156 -8298 8300 0
-8300 8319 0
5157 -8300 8302 0
-8302 8320 0
5158 -8302 8304 0
-8304 8321 0
5159 -8304 8306 0
-8306 8322 0
5160 -8306 8308 0
-8308 8323 0
5161 -8308 0
5147 8309 0
5148 -8309 8310 0
5149 -8310 8311 0
5150 -8311 8312 0
5151 -8312 8313 0
5152 -8313 8314 0
5153 -8314 8315 0
5154 -8315 8316 0
5155 -8316 8317 0
5156 -8317 8318 0
5157 -8318 8319 0
5158 -8319 8320 0
5159 -8320 8321 0
5160 -8321 8322 0
5161 -8322 8323 0
5162 -8323 0
-5145 8324 0
-8324 8325 0
-5146 -8324 8326 0
-8326 8327 0
-5147 -8326 8328 0
-8328 8329 0
-5148 -8328 0
-5146 8325 0
-8325 8330 0
-5147 -8325 8327 0
-8327 8331 0
-5148 -8327 8329 0
-8329 8332 0
-5149 -8329 0
-5147 8330 0
-8330 8333 0
-5148 -8330 8331 0
-8331 8334 0
-5149 -8331 8332 0
-8332 8335 0
-5150 -8332 0
-5148 8333 0
-8333 8336 0
-5149 -8333 8334 0
-8334 8337 0
-5150 -8334 8335 0
-8335 8338 0
-5151 -8335 0
-5149 8336 0
-8336 8339 0
-5150 -8336 8337 0
-8337 8340 0
-5151 -8337 8338 0
-8338 8341 0
-5152 -8338 0
-5150 8339 0
-8339 8342 0
-5151 -8339 8340 0
-8340 8343 0
-5152 -8340 8341 0
-8341 8344 0
-5153 -8341 0
-5151 8342 0
-8342 8345 0
-5152 -8342 8343 0
-8343 8346 0
-5153 -8343 8344 0
-8344 8347 0
-5154 -8344 0
-5152 8345 0
-8345 8348 0
-5153 -8345 8346 0
-8346 8349 0
-5154 -8346 8347 0
-8347 8350 0
-5155 -8347 0
-5153 8348 0
-8348 8351 0
-5154 -8348 8349 0
-8349 8352 0
-5155 -8349 8350 0
-8350 8353 0
-5156 -8350 0
-5154 8351 0
-8351 8354 0
-5155 -8351 8352 0
-8352 8355 0
-5156 -8352 8353 0
-8353 8356 0
-5157 -8353 0
-5155 8354 0
-8354 8357 0
-5156 -8354 8355 0
-8355 8358 0
-5157 -8355 8356 0
-8356 8359 0
-5158 -8356 0
-5156 8357 0
-8357 8360 0
-5157 -8357 8358 0
-8358 8361 0
-5158 -8358 8359 0
-8359 8362 0
-5159 -8359 0
-5157 8360 0
-8360 8363 0
-5158 -8360 8361 0
-8361 8364 0
-5159 -8361 8362 0
-8362 8365 0
-5160 -8362 0
-5158 8363 0
-8363 8366 0
-5159 -8363 8364 0
-8364 8367 0
-5160 -8364 8365 0
-8365 8368 0
-5161 -8365 0
-5159 8366 0
-5160 -8366 8367 0
-5161 -8367 8368 0
-5162 -8368 0
5163 8369 0
-8369 8370 0
5164 -8369 8371 0
-8371 8372 0
5165 -8371 8373 0
-8373 8374 0
5166 -8373 8375 0
-8375 8376 0
5167 -8375 8377 0
-8377 8378 0
5168 -8377 8379 0
-8379 8380 0
5169 -8379 8381 0
-8381 8382 0
5170 -8381 8383 0
-8383 8384 0
5171 -8383 8385 0
-8385 8386 0
5172 -8385 8387 0
-8387 8388 0
5173 -8387 8389 0
-8389 8390 0
5174 -8389 8391 0
-8391 8392 0
5175 -8391 8393 0
-8393 8394 0
5176 -8393 8395 0
-8395 8396 0
5177 -8395 8397 0
-8397 8398 0
5178 -8397 0
5164 8370 0
-8370 8399 0
5165 -8370 8372 0
-8372 8400 0
5166 -8372 8374 0
-8374 8401 0
5167 -8374 8376 0
-8376 8402 0
5168 -8376 8378 0
-8378 8403 0
5169 -8378 8380 0
-8380 8404 0
5170 -8380 8382 0
-8382 8405 0
5171 -8382 8384 0
-8384 8406 0
5172 -8384 8386 0
-8386 8407 0
5173 -8386 8388 0
-8388 8408 0
5174 -8388 8390 0
-8390 8409 0
5175 -8390 8392 0
-8392 8410 0
5176 -8392 8394 0
-8394 8411 0
5177 -8394 8396 0
-8396 8412 0
5178 -8396 8398 0
-8398 8413 0
5179 -8398 0
5165 8399 0
5166 -8399 8400 0
5167 -8400 8401 0
5168 -8401 8402 0
5169 -8402 8403 0
5170 -8403 8404 0
5171 -8404 8405 0
5172 -8405 8406 0
5173 -8406 8407 0
5174 -8407 8408 0
5175 -8408 8409 0
5176 -8409 8410 0
5177 -8410 8411 0
5178 -8411 8412 0
5179 -8412 8413 0
5180 -8413 0
-5163 8414 0
-8414 8415 0
-5164 -8414 8416 0
-8416 8417 0
-5165 -8416 8418 0
-8418 8419 0
-5166 -8418 0
-5164 8415 0
-8415 8420 0
-5165 -8415 8417 0
-8417 8421 0
-5166 -8417 8419 0
-8419 8422 0
-5167 -8419 0
-5165 8420 0
-8420 8423 0
-5166 -8420 8421 0
-8421 8424 0
-5167 -8421 8422 0
-8422 8425 0
-5168 -8422 0
-5166 8423 0
-8423 8426 0
-5167 -8423 8424 0
-8424 8427 0
-5168 -8424 8425 0
-8425 8428 0
-5169 -8425 0
-5167 8426 0
-8426 8429 0
-5168 -8426 8427 0
-8427 8430 0
-5169 -8427 8428 0
-8428 8431 0
-5170 -8428 0
-5168 8429 0
-8429 8432 0
-5169 -8429 8430 0
-8430 8433 0
-5170 -8430 8431 0
-8431 8434 0
-5171 -8431 0
-5169 8432 0
-8432 8435 0
-5170 -8432 8433 0
-8433 8436 0
-5171 -8433 8434 0
-8434 8437 0
-5172 -8434 0
-5170 8435 0
-8435 8438 0
-5171 -8435 8436 0
-8436 8439 0
-5172 -8436 8437 0
-8437 8440 0
-5173 -8437 0
-5171 8438 0
-8438 8441 0
-5172 -8438 8439 0
-8439 8442 0
-5173 -8439 8440 0
-8440 8443 0
-5174 -8440 0
-5172 8441 0
-8441 8444 0
-5173 -8441 8442 0
-8442 8445 0
-5174 -8442 8443 0
-8443 8446 0
-5175 -8443 0
-5173 8444 0
-8444 8447 0
-5174 -8444 8445 0
-8445 8448 0
-5175 -8445 8446 0
-8446 8449 0
-5176 -8446 0
-5174 8447 0
-8447 8450 0
-5175 -8447 8448 0
-8448 8451 0
-5176 -8448 8449 0
-8449 8452 0
-5177 -8449 0
-5175 8450 0
-8450 8453 0
-5176 -8450 8451 0
-8451 8454 0
-5177 -8451 8452 0
-8452 8455 0
-5178 -8452 0
-5176 8453 0
-8453 8456 0
-5177 -8453 8454 0
-8454 8457 0
-5178 -8454 8455 0
-8455 8458 0
-5179 -8455 0
-5177 8456 0
-5178 -8456 8457 0
-5179 -8457 8458 0
-5180 -8458 0
5181 8459 0
-8459 8460 0
5182 -8459 8461 0
-8461 8462 0
5183 -8461 8463 0
-8463 8464 0
5184 -8463 8465 0
-8465 8466 0
5185 -8465 8467 0
-8467 8468 0
5186 -8467 8469 0
-8469 8470 0
5187 -8469 8471 0
-8471 8472 0
5188 -8471 8473 0
-8473 8474 0
5189 -8473 8475 0
-8475 8476 0
5190 -8475 8477 0
-8477 8478 0
5191 -8477 8479 0
-8479 8480 0
5192 -8479 8481 0
-8481 8482 0
5193 -8481 8483 0
-8483 8484 0
5194 -8483 8485 0
-8485 8486 0
5195 -8485 8487 0
-8487 8488 0
5196 -8487 0
5182 8460 0
-8460 8489 0
5183 -8460 8462 0
-8462 8490 0
5184 -8462 8464 0
-8464 8491 0
5185 -8464 8466 0
-8466 8492 0
5186 -8466 8468 0
-8468 8493 0
5187 -8468 8470 0
-8470 8494 0
5188 -8470 8472 0
-8472 8495 0
5189 -8472 8474 0
-8474 8496 0
5190 -8474 8476 0
-8476 8497 0
5191 -8476 8478 0
-8478 8498 0
5192 -8478 8480 0
-8480 8499 0
5193 -8480 8482 0
-8482 8500 0
5194 -8482 8484 0
-8484 8501 0
5195 -8484 8486 0
-8486 8502 0
5196 -8486 8488 0
-8488 8503 0
5197 -8488 0
5183 8489 0
5184 -8489 8490 0
5185 -8490 8491 0
5186 -8491 8492 0
5187 -8492 8493 0
5188 -8493 8494 0
5189 -8494 8495 0
5190 -8495 8496 0
5191 -8496 8497 0
5192 -8497 8498 0
5193 -8498 8499 0
5194 -8499 8500 0
5195 -8500 8501 0
5196 -8501 8502 0
5197 -8502 8503 0
5198 -8503 0
-5181 8504 0
-8504 8505 0
-5182 -8504 8506 0
-8506 8507 0
-5183 -8506 8508 0
-8508 8509 0
-5184 -8508 0
-5182 8505 0
-8505 8510 0
-5183 -8505 8507 0
-8507 8511 0
-5184 -8507 8509 0
-8509 8512 0
-5185 -8509 0
-5183 8510 0
-8510 8513 0
-5184 -8510 8511 0
-8511 8514 0
-5185 -8511 8512 0
-8512 8515 0
-5186 -8512 0
-5184 8513 0
-8513 8516 0
-5185 -8513 8514 0
-8514 8517 0
-5186 -8514 8515 0
-8515 8518 0
-5187 -8515 0
-5185 8516 0
-8516 8519 0
-5186 -8516 8517 0
-8517 8520 0
-5187 -8517 8518 0
-8518 8521 0
-5188 -8518 0
-5186 8519 0
-8519 8522 0
-5187 -8519 8520 0
-8520 8523 0
-5188 -8520 8521 0
-8521 8524 0
-5189 -8521 0
-5187 8522 0
-8522 8525 0
-5188 -8522 8523 0
-8523 8526 0
-5189 -8523 8524 0
-8524 8527 0
-5190 -8524 0
-5188 8525 0
-8525 8528 0
-5189 -8525 8526 0
-8526 8529 0
-5190 -8526 8527 0
-8527 8530 0
-5191 -8527 0
-5189 8528 0
-8528 8531 0
-5190 -8528 8529 0
-8529 8532 0
-5191 -8529 8530 0
-8530 8533 0
-5192 -8530 0
-5190 8531 0
-8531 8534 0
-5191 -8531 8532 0
-8532 8535 0
-5192 -8532 8533 0
-8533 8536 0
-5193 -8533 0
-5191 8534 0
-8534 8537 0
-5192 -8534 8535 0
-8535 8538 0
-5193 -8535 8536 0
-8536 8539 0
-5194 -8536 0
-5192 8537 0
-8537 8540 0
-5193 -8537 8538 0
-8538 8541 0
-5194 -8538 8539 0
-8539 8542 0
-5195 -8539 0
-5193 8540 0
-8540 8543 0
-5194 -8540 8541 0
-8541 8544 0
-5195 -8541 8542 0
-8542 8545 0
-5196 -8542 0
-5194 8543 0
-8543 8546 0
-5195 -8543 8544 0
-8544 8547 0
-5196 -8544 8545 0
-8545 8548 0
-5197 -8545 0
-5195 8546 0
-5196 -8546 8547 0
-5197 -8547 8548 0
-5198 -8548 0
5199 8549 0
-8549 8550 0
5200 -8549 8551 0
-8551 8552 0
5201 -8551 8553 0
-8553 8554 0
5202 -8553 8555 0
-8555 8556 0
5203 -8555 8557 0
-8557 8558 0
5204 -8557 8559 0
-8559 8560 0
5205 -8559 8561 0
-8561 8562 0
5206 -8561 8563 0
-8563 8564 0
5207 -8563 8565 0
-8565 8566 0
5208 -8565 8567 0
-8567 8568 0
5209 -8567 8569 0
-8569 8570 0
5210 -8569 8571 0
-8571 8572 0
5211 -8571 8573 0
-8573 8574 0
5212 -8573 8575 0
-8575 8576 0
5213 -8575 8577 0
-8577 8578 0
5214 -8577 0
5200 8550 0
-8550 8579 0
5201 -8550 8552 0
-8552 8580 0
5202 -8552 8554 0
-8554 8581 0
5203 -8554 8556 0
-8556 8582 0
5204 -8556 8558 0
-8558 8583 0
5205 -8558 8560 0
-8560 8584 0
5206 -8560 8562 0
-8562 8585 0
5207 -8562 8564 0
-8564 8586 0
5208 -8564 8566 0
-8566 8587 0
5209 -8566 8568 0
-8568 8588 0
5210 -8568 8570 0
-8570 8589 0
5211 -8570 8572 0
-8572 8590 0
5212 -8572 8574 0
-8574 8591 0
5213 -8574 8576 0
-8576 8592 0
5214 -8576 8578 0
-8578 8593 0
5215 -8578 0
5201 8579 0
5202 -8579 8580 0
5203 -8580 8581 0
5204 -8581 8582 0
5205 -8582 8583 0
5206 -8583 8584 0
5207 -8584 8585 0
5208 -8585 8586 0
5209 -8586 8587 0
5210 -8587 8588 0
5211 -8588 8589 0
5212 -8589 8590 0
5213 -8590 8591 0
5214 -8591 8592 0
5215 -8592 8593 0
5216 -8593 0
-5199 8594 0
-8594 8595 0
-5200 -8594 8596 0
-8596 8597 0
-5201 -8596 8598 0
-8598 8599 0
-5202 -8598 0
-5200 8595 0
-8595 8600 0
-5201 -8595 8597 0
-8597 8601 0
-5202 -8597 8599 0
-8599 8602 0
-5203 -8599 0
-5201 8600 0
-8600 8603 0
-5202 -8600 8601 0
-8601 8604 0
-5203 -8601 8602 0
-8602 8605 0
-5204 -8602 0
-5202 8603 0
-8603 8606 0
-5203 -8603 8604 0
-8604 8607 0
-5204 -8604 8605 0
-8605 8608 0
-5205 -8605 0
-5203 8606 0
-8606 8609 0
-5204 -8606 8607 0
-8607 8610 0
-5205 -8607 8608 0
-8608 8611 0
-5206 -8608 0
-5204 8609 0
-8609 8612 0
-5205 -8609 8610 0
-8610 8613 0
-5206 -8610 8611 0
-8611 8614 0
-5207 -8611 0
-5205 8612 0
-8612 8615 0
-5206 -8612 8613 0
-8613 8616 0
-5207 -8613 8614 0
-8614 8617 0
-5208 -8614 0
-5206 8615 0
-8615 8618 0
-5207 -8615 8616 0
-8616 8619 0
-5208 -8616 8617 0
-8617 8620 0
-5209 -8617 0
-5207 8618 0
-8618 8621 0
-5208 -8618 8619 0
-8619 8622 0
-5209 -8619 8620 0
-8620 8623 0
-5210 -8620 0
-5208 8621 0
-8621 8624 0
-5209 -8621 8622 0
-8622 8625 0
-5210 -8622 8623 0
-8623 8626 0
-5211 -8623 0
-5209 8624 0
-8624 8627 0
-5210 -8624 8625 0
-8625 8628 0
-5211 -8625 8626 0
-8626 8629 0
-5212 -8626 0
-5210 8627 0
-8627 8630 0
-5211 -8627 8628 0
-8628 8631 0
-5212 -8628 8629 0
-8629 8632 0
-5213 -8629 0
-5211 8630 0
-8630 8633 0
-5212 -8630 8631 0
-8631 8634 0
-5213 -8631 8632 0
-8632 8635 0
-5214 -8632 0
-5212 8633 0
-8633 8636 0
-5213 -8633 8634 0
-8634 8637 0
-5214 -8634 8635 0
-8635 8638 0
-5215 -8635 0
-5213 8636 0
-5214 -8636 8637 0
-5215 -8637 8638 0
-5216 -8638 0
5217 8639 0
-8639 8640 0
5218 -8639 8641 0
-8641 8642 0
5219 -8641 8643 0
-8643 8644 0
5220 -8643 8645 0
-8645 8646 0
5221 -8645 8647 0
-8647 8648 0
5222 -8647 8649 0
-8649 8650 0
5223 -8649 8651 0
-8651 8652 0
5224 -8651 8653 0
-8653 8654 0
5225 -8653 8655 0
-8655 8656 0
5226 -8655 8657 0
-8657 8658 0
5227 -8657 8659 0
-8659 8660 0
5228 -8659 8661 0
-8661 8662 0
5229 -8661 8663 0
-8663 8664 0
5230 -8663 8665 0
-8665 8666 0
5231 -8665 8667 0
-8667 8668 0
5232 -8667 0
5218 8640 0
-8640 8669 0
5219 -8640 8642 0
-8642 8670 0
5220 -8642 8644 0
-8644 8671 0
5221 -8644 8646 0
-8646 8672 0
5222 -8646 8648 0
-8648 8673 0
5223 -8648 8650 0
-8650 8674 0
5224 -8650 8652 0
-8652 8675 0
5225 -8652 8654 0
-8654 8676 0
5226 -8654 8656 0
-8656 8677 0
5227 -8656 8658 0
-8658 8678 0
5228 -8658 8660 0
-8660 8679 0
5229 -8660 8662 0
-8662 8680 0
5230 -8662 8664 0
-8664 8681 0
5231 -8664 8666 0
-8666 8682 0
5232 -8666 8668 0
-8668 8683 0
5233 -8668 0
5219 8669 0
5220 -8669 8670 0
5221 -8670 8671 0
5222 -8671 8672 0
5223 -8672 8673 0
5224 -8673 8674 0
5225 -8674 8675 0
5226 -8675 8676 0
5227 -8676 8677 0
5228 -8677 8678 0
5229 -8678 8679 0
5230 -8679 8680 0
5231 -8680 8681 0
5232 -8681 8682 0
5233 -8682 8683 0
5234 -8683 0
-5217 8684 0
-8684 8685 0
-5218 -8684 8686 0
-8686 8687 0
-5219 -8686 8688 0
-8688 8689 0
-5220 -8688 0
-5218 8685 0
-8685 8690 0
-5219 -8685 8687 0
-8687 8691 0
-5220 -8687 8689 0
-8689 8692 0
-5221 -8689 0
-5219 8690 0
-8690 8693 0
-5220 -8690 8691 0
-8691 8694 0
-5221 -8691 8692 0
-8692 8695 0
-5222 -8692 0
-5220 8693 0
-8693 8696 0
-5221 -8693 8694 0
-8694 8697 0
-5222 -8694 8695 0
-8695 8698 0
-5223 -8695 0
-5221 8696 0
-8696 8699 0
-5222 -8696 8697 0
-8697 8700 0
-5223 -8697 8698 0
-8698 8701 0
-5224 -8698 0
-5222 8699 0
-8699 8702 0
-5223 -8699 8700 0
-8700 8703 0
-5224 -8700 8701 0
-8701 8704 0
-5225 -8701 0
-5223 8702 0
-8702 8705 0
-5224 -8702 8703 0
-8703 8706 0
-5225 -8703 8704 0
-8704 8707 0
-5226 -8704 0
-5224 8705 0
-8705 8708 0
-5225 -8705 8706 0
-8706 8709 0
-5226 -8706 8707 0
-8707 8710 0
-5227 -8707 0
-5225 8708 0
-8708 8711 0
-5226 -8708 8709 0
-8709 8712 0
-5227 -8709 8710 0
-8710 8713 0
-5228 -8710 0
-5226 8711 0
-8711 8714 0
-5227 -8711 8712 0
-8712 8715 0
-5228 -8712 8713 0
-8713 8716 0
-5229 -8713 0
-5227 8714 0
-8714 8717 0
-5228 -8714 8715 0
-8715 8718 0
-5229 -8715 8716 0
-8716 8719 0
-5230 -8716 0
-5228 8717 0
-8717 8720 0
-5229 -8717 8718 0
-8718 8721 0
-5230 -8718 8719 0
-8719 8722 0
-5231 -8719 0
-5229 8720 0
-8720 8723 0
-5230 -8720 8721 0
-8721 8724 0
-5231 -8721 8722 0
-8722 8725 0
-5232 -8722 0
-5230 8723 0
-8723 8726 0
-5231 -8723 8724 0
-8724 8727 0
-5232 -8724 8725 0
-8725 8728 0
-5233 -8725 0
-5231 8726 0
-5232 -8726 8727 0
-5233 -8727 8728 0
-5234 -8728 0
5235 8729 0
-8729 8730 0
5236 -8729 8731 0
-8731 8732 0
5237 -8731 8733 0
-8733 8734 0
5238 -8733 8735 0
-8735 8736 0
5239 -8735 8737 0
-8737 8738 0
5240 -8737 8739 0
-8739 8740 0
5241 -8739 8741 0
-8741 8742 0
5242 -8741 8743 0
-8743 8744 0
5243 -8743 8745 0
-8745 8746 0
5244 -8745 8747 0
-8747 8748 0
5245 -8747 8749 0
-8749 8750 0
5246 -8749 8751 0
-8751 8752 0
5247 -8751 8753 0
-8753 8754 0
5248 -8753 8755 0
-8755 8756 0
5249 -8755 8757 0
-8757 8758 0
5250 -8757 0
5236 8730 0
-8730 8759 0
5237 -8730 8732 0
-8732 8760 0
5238 -8732 8734 0
-8734 8761 0
5239 -8734 8736 0
-8736 8762 0
5240 -8736 8738 0
-8738 8763 0
5241 -8738 8740 0
-8740 8764 0
5242 -8740 8742 0
-8742 8765 0
5243 -8742 8744 0
-8744 8766 0
5244 -8744 8746 0
-8746 8767 0
5245 -8746 8748 0
-8748 8768 0
5246 -8748 8750 0
-8750 8769 0
5247 -8750 8752 0
-8752 8770 0
5248 -8752 8754 0
-8754 8771 0
5249 -8754 8756 0
-8756 8772 0
5250 -8756 8758 0
-8758 8773 0
5251 -8758 0
5237 8759 0
5238 -8759 8760 0
5239 -8760 8761 0
5240 -8761 8762 0
5241 -8762 8763 0
5242 -8763 8764 0
5243 -8764 8765 0
5244 -8765 8766 0
5245 -8766 8767 0
5246 -8767 8768 0
5247 -8768 8769 0
5248 -8769 8770 0
5249 -8770 8771 0
5250 -8771 8772 0
5251 -8772 8773 0
5252 -8773 0
-5235 8774 0
-8774 8775 0
-5236 -8774 8776 0
-8776 8777 0
-5237 -8776 8778 0
-8778 8779 0
-5238 -8778 0
-5236 8775 0
-8775 8780 0
-5237 -8775 8777 0
-8777 8781 0
-5238 -8777 8779 0
-8779 8782 0
-5239 -8779 0
-5237 8780 0
-8780 8783 0
-5238 -8780 8781 0
-8781 8784 0
-5239 -8781 8782 0
-8782 8785 0
-5240 -8782 0
-5238 8783 0
-8783 8786 0
-5239 -8783 8784 0
-8784 8787 0
-5240 -8784 8785 0
-8785 8788 0
-5241 -8785 0
-5239 8786 0
-8786 8789 0
-5240 -8786 8787 0
-8787 8790 0
-5241 -8787 8788 0
-8788 8791 0
-5242 -8788 0
-5240 8789 0
-8789 8792 0
-5241 -8789 8790 0
-8790 8793 0
-5242 -8790 8791 0
-8791 8794 0
-5243 -8791 0
-5241 8792 0
-8792 8795 0
-5242 -8792 8793 0
-8793 8796 0
-5243 -8793 8794 0
-8794 8797 0
-5244 -8794 0
-5242 8795 0
-8795 8798 0
-5243 -8795 8796 0
-8796 8799 0
-5244 -8796 8797 0
-8797 8800 0
-5245 -8797 0
-5243 8798 0
-8798 8801 0
-5244 -8798 8799 0
-8799 8802 0
-5245 -8799 8800 0
-8800 8803 0
-5246 -8800 0
-5244 8801 0
-8801 8804 0
-5245 -8801 8802 0
-8802 8805 0
-5246 -8802 8803 0
-8803 8806 0
-5247 -8803 0
-5245 8804 0
-8804 8807 0
-5246 -8804 8805 0
-8805 8808 0
-5247 -8805 8806 0
-8806 8809 0
-5248 -8806 0
-5246 8807 0
-8807 8810 0
-5247 -8807 8808 0
-8808 8811 0
-5248 -8808 8809 0
-8809 8812 0
-5249 -8809 0
-5247 8810 0
-8810 8813 0
-5248 -8810 8811 0
-8811 8814 0
-5249 -8811 8812 0
-8812 8815 0
-5250 -8812 0
-5248 8813 0
-8813 8816 0
-5249 -8813 8814 0
-8814 8817 0
-5250 -8814 8815 0
-8815 8818 0
-5251 -8815 0
-5249 8816 0
-5250 -8816 8817 0
-5251 -8817 8818 0
-5252 -8818 0
5253 8819 0
-8819 8820 0
5254 -8819 8821 0
-8821 8822 0
5255 -8821 8823 0
-8823 8824 0
5256 -8823 8825 0
-8825 8826 0
5257 -8825 8827 0
-8827 8828 0
5258 -8827 8829 0
-8829 8830 0
5259 -8829 8831 0
-8831 8832 0
5260 -8831 8833 0
-8833 8834 0
5261 -8833 8835 0
-8835 8836 0
5262 -8835 8837 0
-8837 8838 0
5263 -8837 8839 0
-8839 8840 0
5264 -8839 8841 0
-8841 8842 0
5265 -8841 8843 0
-8843 8844 0
5266 -8843 8845 0
-8845 8846 0
5267 -8845 8847 0
-8847 8848 0
5268 -8847 0
5254 8820 0
-8820 8849 0
5255 -8820 8822 0
-8822 8850 0
5256 -8822 8824 0
-8824 8851 0
5257 -8824 8826 0
-8826 8852 0
5258 -8826 8828 0
-8828 8853 0
5259 -8828 8830 0
-8830 8854 0
5260 -8830 8832 0
-8832 8855 0
5261 -8832 8834 0
-8834 8856 0
5262 -8834 8836 0
-8836 8857 0
5263 -8836 8838 0
-8838 8858 0
5264 -8838 8840 0
-8840 8859 0
5265 -8840 8842 0
-8842 8860 0
5266 -8842 8844 0
-8844 8861 0
5267 -8844 8846 0
-8846 8862 0
5268 -8846 8848 0
-8848 8863 0
5269 -8848 0
5255 8849 0
5256 -8849 8850 0
5257 -8850 8851 0
5258 -8851 8852 0
5259 -8852 8853 0
5260 -8853 8854 0
5261 -8854 8855 0
5262 -8855 8856 0
5263 -8856 8857 0
5264 -8857 8858 0
5265 -8858 8859 0
5266 -8859 8860 0
5267 -8860 8861 0
5268 -8861 8862 0
5269 -8862 8863 0
5270 -8863 0
-5253 8864 0
-8864 8865 0
-5254 -8864 8866 0
-8866 8867 0
-5255 -8866 8868 0
-8868 8869 0
-5256 -8868 0
-5254 8865 0
-8865 8870 0
-5255 -8865 8867 0
-8867 8871 0
-5256 -8867 8869 0
-8869 8872 0
-5257 -8869 0
-5255 8870 0
-8870 8873 0
-5256 -8870 8871 0
-8871 8874 0
-5257 -8871 8872 0
-8872 8875 0
-5258 -8872 0
-5256 8873 0
-8873 8876 0
-5257 -8873 8874 0
-8874 8877 0
-5258 -8874 8875 0
-8875 8878 0
-5259 -8875 0
-5257 8876 0
-8876 8879 0
-5258 -8876 8877 0
-8877 8880 0
-5259 -8877 8878 0
-8878 8881 0
-5260 -8878 0
-5258 8879 0
-8879 8882 0
-5259 -8879 8880 0
-8880 8883 0
-5260 -8880 8881 0
-8881 8884 0
-5261 -8881 0
-5259 8882 0
-8882 8885 0
-5260 -8882 8883 0
-8883 8886 0
-5261 -8883 8884 0
-8884 8887 0
-5262 -8884 0
-5260 8885 0
-8885 8888 0
-5261 -8885 8886 0
-8886 8889 0
-5262 -8886 8887 0
-8887 8890 0
-5263 -8887 0
-5261 8888 0
-8888 8891 0
-5262 -8888 8889 0
-8889 8892 0
-5263 -8889 8890 0
-8890 8893 0
-5264 -8890 0
-5262 8891 0
-8891 8894 0
-5263 -8891 8892 0
-8892 8895 0
-5264 -8892 8893 0
-8893 8896 0
-5265 -8893 0
-5263 8894 0
-8894 8897 0
-5264 -8894 8895 0
-8895 8898 0
-5265 -8895 8896 0
-8896 8899 0
-5266 -8896 0
-5264 8897 0
-8897 8900 0
-5265 -8897 8898 0
-8898 8901 0
-5266 -8898 8899 0
-8899 8902 0
-5267 -8899 0
-5265 8900 0
-8900 8903 0
-5266 -8900 8901 0
-8901 8904 0
-5267 -8901 8902 0
-8902 8905 0
-5268 -8902 0
-5266 8903 0
-8903 8906 0
-5267 -8903 8904 0
-8904 8907 0
-5268 -8904 8905 0
-8905 8908 0
-5269 -8905 0
-5267 8906 0
-5268 -8906 8907 0
-5269 -8907 8908 0
-5270 -8908 0
5271 8909 0
-8909 8910 0
5272 -8909 8911 0
-8911 8912 0
5273 -8911 8913 0
-8913 8914 0
5274 -8913 8915 0
-8915 8916 0
5275 -8915 8917 0
-8917 8918 0
5276 -8917 8919 0
-8919 8920 0
5277 -8919 8921 0
-8921 8922 0
5278 -8921 8923 0
-8923 8924 0
5279 -8923 8925 0
-8925 8926 0
5280 -8925 8927 0
-8927 8928 0
5281 -8927 8929 0
-8929 8930 0
5282 -8929 8931 0
-8931 8932 0
5283 -8931 8933 0
-8933 8934 0
5284 -8933 8935 0
-8935 8936 0
5285 -8935 8937 0
-8937 8938 0
5286 -8937 0
5272 8910 0
-8910 8939 0
5273 -8910 8912 0
-8912 8940 0
5274 -8912 8914 0
-8914 8941 0
5275 -8914 8916 0
-8916 8942 0
5276 -8916 8918 0
-8918 8943 0
5277 -8918 8920 0
-8920 8944 0
5278 -8920 8922 0
-8922 8945 0
5279 -8922 8924 0
-8924 8946 0
5280 -8924 8926 0
-8926 8947 0
5281 -8926 8928 0
-8928 8948 0
5282 -8928 8930 0
-8930 8949 0
5283 -8930 8932 0
-8932 8950 0
5284 -8932 8934 0
-8934 8951 0
5285 -8934 8936 0
-8936 8952 0
5286 -8936 8938 0
-8938 8953 0
5287 -8938 0
5273 8939 0
5274 -8939 8940 0
5275 -8940 8941 0
5276 -8941 8942 0
5277 -8942 8943 0
5278 -8943 8944 0
5279 -8944 8945 0
5280 -8945 8946 0
5281 -8946 8947 0
5282 -8947 8948 0
5283 -8948 8949 0
5284 -8949 8950 0
5285 -8950 8951 0
5286 -8951 8952 0
5287 -8952 8953 0
5288 -8953 0
-5271 8954 0
-8954 8955 0
-5272 -8954 8956 0
-8956 8957 0
-5273 -8956 8958 0
-8958 8959 0
-5274 -8958 0
-5272 8955 0
-8955 8960 0
-5273 -8955 8957 0
-8957 8961 0
-5274 -8957 8959 0
-8959 8962 0
-5275 -8959 0
-5273 8960 0
-8960 8963 0
-5274 -8960 8961 0
-8961 8964 0
-5275 -8961 8962 0
-8962 8965 0
-5276 -8962 0
-5274 8963 0
-8963 8966 0
-5275 -8963 8964 0
-8964 8967 0
-5276 -8964 8965 0
-8965 8968 0
-5277 -8965 0
-5275 8966 0
-8966 8969 0
-5276 -8966 8967 0
-8967 8970 0
-5277 -8967 8968 0
-8968 8971 0
-5278 -8968 0
-5276 8969 0
-8969 8972 0
-5277 -8969 8970 0
-8970 8973 0
-5278 -8970 8971 0
-8971 8974 0
-5279 -8971 0
-5277 8972 0
-8972 8975 0
-5278 -8972 8973 0
-8973 8976 0
-5279 -8973 8974 0
-8974 8977 0
-5280 -8974 0
-5278 8975 0
-8975 8978 0
-5279 -8975 8976 0
-8976 8979 0
-5280 -8976 8977 0
-8977 8980 0
-5281 -8977 0
-5279 8978 0
-8978 8981 0
-5280 -8978 8979 0
-8979 8982 0
-5281 -8979 8980 0
-8980 8983 0
-5282 -8980 0
-5280 8981 0
-8981 8984 0
-5281 -8981 8982 0
-8982 8985 0
-5282 -8982 8983 0
-8983 8986 0
-5283 -8983 0
-5281 8984 0
-8984 8987 0
-5282 -8984 8985 0
-8985 8988 0
-5283 -8985 8986 0
-8986 8989 0
-5284 -8986 0
-5282 8987 0
-8987 8990 0
-5283 -8987 8988 0
-8988 8991 0
-5284 -8988 8989 0
-8989 8992 0
-5285 -8989 0
-5283 8990 0
-8990 8993 0
-5284 -8990 8991 0
-8991 8994 0
-5285 -8991 8992 0
-8992 8995 0
-5286 -8992 0
-5284 8993 0
-8993 8996 0
-5285 -8993 8994 0
-8994 8997 0
-5286 -8994 8995 0
-8995 8998 0
-5287 -8995 0
-5285 8996 0
-5286 -8996 8997 0
-5287 -8997 8998 0
-5288 -8998 0
5289 8999 0
-8999 9000 0
5290 -8999 9001 0
-9001 9002 0
5291 -9001 9003 0
-9003 9004 0
5292 -9003 9005 0
-9005 9006 0
5293 -9005 9007 0
-9007 9008 0
5294 -9007 9009 0
-9009 9010 0
5295 -9009 9011 0
-9011 9012 0
5296 -9011 9013 0
-9013 9014 0
5297 -9013 9015 0
-9015 9016 0
5298 -9015 9017 0
-9017 9018 0
5299 -9017 9019 0
-9019 9020 0
5300 -9019 9021 0
-9021 9022 0
5301 -9021 9023 0
-9023 9024 0
5302 -9023 9025 0
-9025 9026 0
5303 -9025 9027 0
-9027 9028 0
5304 -9027 0
5290 9000 0
-9000 9029 0
5291 -9000 9002 0
-9002 9030 0
5292 -9002 9004 0
-9004 9031 0
5293 -9004 9006 0
-9006 9032 0
5294 -9006 9008 0
-9008 9033 0
5295 -9008 9010 0
-9010 9034 0
5296 -9010 9012 0
-9012 9035 0
5297 -9012 9014 0
-9014 9036 0
5298 -9014 9016 0
-9016 9037 0
5299 -9016 9018 0
-9018 9038 0
5300 -9018 9020 0
-9020 9039 0
5301 -9020 9022 0
-9022 9040 0
5302 -9022 9024 0
-9024 9041 0
5303 -9024 9026 0
-9026 9042 0
5304 -9026 9028 0
-9028 9043 0
5305 -9028 0
5291 9029 0
5292 -9029 9030 0
5293 -9030 9031 0
5294 -9031 9032 0
5295 -9032 9033 0
5296 -9033 9034 0
5297 -9034 9035 0
5298 -9035 9036 0
5299 -9036 9037 0
5300 -9037 9038 0
5301 -9038 9039 0
5302 -9039 9040 0
5303 -9040 9041 0
5304 -9041 9042 0
5305 -9042 9043 0
5306 -9043 0
-5289 9044 0
-9044 9045 0
-5290 -9044 9046 0
-9046 9047 0
-5291 -9046 9048 0
-9048 9049 0
-5292 -9048 0
-5290 9045 0
-9045 9050 0
-5291 -9045 9047 0
-9047 9051 0
-5292 -9047 9049 0
-9049 9052 0
-5293 -9049 0
-5291 9050 0
-9050 9053 0
-5292 -9050 9051 0
-9051 9054 0
-5293 -9051 9052 0
-9052 9055 0
-5294 -9052 0
-5292 9053 0
-9053 9056 0
-5293 -9053 9054 0
-9054 9057 0
-5294 -9054 9055 0
-9055 9058 0
-5295 -9055 0
-5293 9056 0
-9056 9059 0
-5294 -9056 9057 0
-9057 9060 0
-5295 -9057 9058 0
-9058 9061 0
-5296 -9058 0
-5294 9059 0
-9059 9062 0
-5295 -9059 9060 0
-9060 9063 0
-5296 -9060 9061 0
-9061 9064 0
-5297 -9061 0
-5295 9062 0
-9062 9065 0
-5296 -9062 9063 0
-9063 9066 0
-5297 -9063 9064 0
-9064 9067 0
-5298 -9064 0
-5296 9065 0
-9065 9068 0
-5297 -9065 9066 0
-9066 9069 0
-5298 -9066 9067 0
-9067 9070 0
-5299 -9067 0
-5297 9068 0
-9068 9071 0
-5298 -9068 9069 0
-9069 9072 0
-5299 -9069 9070 0
-9070 9073 0
-5300 -9070 0
-5298 9071 0
-9071 9074 0
-5299 -9071 9072 0
-9072 9075 0
-5300 -9072 9073 0
-9073 9076 0
-5301 -9073 0
-5299 9074 0
-9074 9077 0
-5300 -9074 9075 0
-9075 9078 0
-5301 -9075 9076 0
-9076 9079 0
-5302 -9076 0
-5300 9077 0
-9077 9080 0
-5301 -9077 9078 0
-9078 9081 0
-5302 -9078 9079 0
-9079 9082 0
-5303 -9079 0
-5301 9080 0
-9080 9083 0
-5302 -9080 9081 0
-9081 9084 0
-5303 -9081 9082 0
-9082 9085 0
-5304 -9082 0
-5302 9083 0
-9083 9086 0
-5303 -9083 9084 0
-9084 9087 0
-5304 -9084 9085 0
-9085 9088 0
-5305 -9085 0
-5303 9086 0
-5304 -9086 9087 0
-5305 -9087 9088 0
-5306 -9088 0
5307 9089 0
-9089 9090 0
5308 -9089 9091 0
-9091 9092 0
5309 -9091 9093 0
-9093 9094 0
5310 -9093 9095 0
-9095 9096 0
5311 -9095 9097 0
-9097 9098 0
5312 -9097 9099 0
-9099 9100 0
5313 -9099 9101 0
-9101 9102 0
5314 -9101 9103 0
-9103 9104 0
5315 -9103 9105 0
-9105 9106 0
5316 -9105 9107 0
-9107 9108 0
5317 -9107 9109 0
-9109 9110 0
5318 -9109 9111 0
-9111 9112 0
5319 -9111 9113 0
-9113 9114 0
5320 -9113 9115 0
-9115 9116 0
5321 -9115 9117 0
-9117 9118 0
5322 -9117 0
5308 9090 0
-9090 9119 0
5309 -9090 9092 0
-9092 9120 0
5310 -9092 9094 0
-9094 9121 0
5311 -9094 9096 0
-9096 9122 0
5312 -9096 9098 0
-9098 9123 0
5313 -9098 9100 0
-9100 9124 0
5314 -9100 9102 0
-9102 9125 0
5315 -9102 9104 0
-9104 9126 0
5316 -9104 9106 0
-9106 9127 0
5317 -9106 9108 0
-9108 9128 0
5318 -9108 9110 0
-9110 9129 0
5319 -9110 9112 0
-9112 9130 0
5320 -9112 9114 0
-9114 9131 0
5321 -9114 9116 0
-9116 9132 0
5322 -9116 9118 0
-9118 9133 0
5323 -9118 0
5309 9119 0
5310 -9119 9120 0
5311 -9120 9121 0
5312 -9121 9122 0
5313 -9122 9123 0
5314 -9123 9124 0
5315 -9124 9125 0
5316 -9125 9126 0
5317 -9126 9127 0
5318 -9127 9128 0
5319 -9128 9129 0
5320 -9129 9130 0
5321 -9130 9131 0
5322 -9131 9132 0
5323 -9132 9133 0
5324 -9133 0
-5307 9134 0
-9134 9135 0
-5308 -9134 9136 0
-9136 9137 0
-5309 -9136 9138 0
-9138 9139 0
-5310 -9138 0
-5308 9135 0
-9135 9140 0
-5309 -9135 9137 0
-9137 9141 0
-5310 -9137 9139 0
-9139 9142 0
-5311 -9139 0
-5309 9140 0
-9140 9143 0
-5310 -9140 9141 0
-9141 9144 0
-5311 -9141 9142 0
-9142 9145 0
-5312 -9142 0
-5310 9143 0
-9143 9146 0
-5311 -9143 9144 0
-9144 9147 0
-5312 -9144 9145 0
-9145 9148 0
-5313 -9145 0
-5311 9146 0
-9146 9149 0
-5312 -9146 9147 0
-9147 9150 0
-5313 -9147 9148 0
-9148 9151 0
-5314 -9148 0
-5312 9149 0
-9149 9152 0
-5313 -9149 9150 0
-9150 9153 0
-5314 -9150 9151 0
-9151 9154 0
-5315 -9151 0
-5313 9152 0
-9152 9155 0
-5314 -9152 9153 0
-9153 9156 0
-5315 -9153 9154 0
-9154 9157 0
-5316 -9154 0
-5314 9155 0
-9155 9158 0
-5315 -9155 9156 0
-9156 9159 0
-5316 -9156 9157 0
-9157 9160 0
-5317 -9157 0
-5315 9158 0
-9158 9161 0
-5316 -9158 9159 0
-9159 9162 0
-5317 -9159 9160 0
-9160 9163 0
-5318 -9160 0
-5316 9161 0
-9161 9164 0
-5317 -9161 9162 0
-9162 9165 0
-5318 -9162 9163 0
-9163 9166 0
-5319 -9163 0
-5317 9164 0
-9164 9167 0
-5318 -9164 9165 0
-9165 9168 0
-5319 -9165 9166 0
-9166 9169 0
-5320 -9166 0
-5318 9167 0
-9167 9170 0
-5319 -9167 9168 0
-9168 9171 0
-5320 -9168 9169 0
-9169 9172 0
-5321 -9169 0
-5319 9170 0
-9170 9173 0
-5320 -9170 9171 0
-9171 9174 0
-5321 -9171 9172 0
-9172 9175 0
-5322 -9172 0
-5320 9173 0
-9173 9176 0
-5321 -9173 9174 0
-9174 9177 0
-5322 -9174 9175 0
-9175 9178 0
-5323 -9175 0
-5321 9176 0
-5322 -9176 9177 0
-5323 -9177 9178 0
-5324 -9178 0
5325 9179 0
-9179 9180 0
5326 -9179 9181 0
-9181 9182 0
5327 -9181 9183 0
-9183 9184 0
5328 -9183 9185 0
-9185 9186 0
5329 -9185 9187 0
-9187 9188 0
5330 -9187 9189 0
-9189 9190 0
5331 -9189 9191 0
-9191 9192 0
5332 -9191 9193 0
-9193 9194 0
5333 -9193 9195 0
-9195 9196 0
5334 -9195 9197 0
-9197 9198 0
5335 -9197 9199 0
-9199 9200 0
5336 -9199 9201 0
-9201 9202 0
5337 -9201 9203 0
-9203 9204 0
5338 -9203 9205 0
-9205 9206 0
5339 -9205 9207 0
-9207 9208 0
5340 -9207 0
5326 9180 0
-9180 9209 0
5327 -9180 9182 0
-9182 9210 0
5328 -9182 9184 0
-9184 9211 0
5329 -9184 9186 0
-9186 9212 0
5330 -9186 9188 0
-9188 9213 0
5331 -9188 9190 0
-9190 9214 0
5332 -9190 9192 0
-9192 9215 0
5333 -9192 9194 0
-9194 9216 0
5334 -9194 9196 0
-9196 9217 0
5335 -9196 9198 0
-9198 9218 0
5336 -9198 9200 0
-9200 9219 0
5337 -9200 9202 0
-9202 9220 0
5338 -9202 9204 0
-9204 9221 0
5339 -9204 9206 0
-9206 9222 0
5340 -9206 9208 0
-9208 9223 0
5341 -9208 0
5327 9209 0
5328 -9209 9210 0
5329 -9210 9211 0
5330 -9211 9212 0
5331 -9212 9213 0
5332 -9213 9214 0
5333 -9214 9215 0
5334 -9215 9216 0
5335 -9216 9217 0
5336 -9217 9218 0
5337 -9218 9219 0
5338 -9219 9220 0
5339 -9220 9221 0
5340 -9221 9222 0
5341 -9222 9223 0
5342 -9223 0
-5325 9224 0
-9224 9225 0
-5326 -9224 9226 0
-9226 9227 0
-5327 -9226 9228 0
-9228 9229 0
-5328 -9228 0
-5326 9225 0
-9225 9230 0
-5327 -9225 9227 0
-9227 9231 0
-5328 -9227 9229 0
-9229 9232 0
-5329 -9229 0
-5327 9230 0
-9230 9233 0
-5328 -9230 9231 0
-9231 9234 0
-5329 -9231 9232 0
-9232 9235 0
-5330 -9232 0
-5328 9233 0
-9233 9236 0
-5329 -9233 9234 0
-9234 9237 0
-5330 -9234 9235 0
-9235 9238 0
-5331 -9235 0
-5329 9236 0
-9236 9239 0
-5330 -9236 9237 0
-9237 9240 0
-5331 -9237 9238 0
-9238 9241 0
-5332 -9238 0
-5330 9239 0
-9239 9242 0
-5331 -9239 9240 0
-9240 9243 0
-5332 -9240 9241 0
-9241 9244 0
-5333 -9241 0
-5331 9242 0
-9242 9245 0
-5332 -9242 9243 0
-9243 9246 0
-5333 -9243 9244 0
-9244 9247 0
-5334 -9244 0
-5332 9245 0
-9245 9248 0
-5333 -9245 9246 0
-9246 9249 0
-5334 -9246 9247 0
-9247 9250 0
-5335 -9247 0
-5333 9248 0
-9248 9251 0
-5334 -9248 9249 0
-9249 9252 0
-5335 -9249 9250 0
-9250 9253 0
-5336 -9250 0
-5334 9251 0
-9251 9254 0
-5335 -9251 9252 0
-9252 9255 0
-5336 -9252 9253 0
-9253 9256 0
-5337 -9253 0
-5335 9254 0
-9254 9257 0
-5336 -9254 9255 0
-9255 9258 0
-5337 -9255 9256 0
-9256 9259 0
-5338 -9256 0
-5336 9257 0
-9257 9260 0
-5337 -9257 9258 0
-9258 9261 0
-5338 -9258 9259 0
-9259 9262 0
-5339 -9259 0
-5337 9260 0
-9260 9263 0
-5338 -9260 9261 0
-9261 9264 0
-5339 -9261 9262 0
-9262 9265 0
-5340 -9262 0
-5338 9263 0
-9263 9266 0
-5339 -9263 9264 0
-9264 9267 0
-5340 -9264 9265 0
-9265 9268 0
-5341 -9265 0
-5339 9266 0
-5340 -9266 9267 0
-5341 -9267 9268 0
-5342 -9268 0
5343 9269 0
-9269 9270 0
5344 -9269 9271 0
-9271 9272 0
5345 -9271 9273 0
-9273 9274 0
5346 -9273 9275 0
-9275 9276 0
5347 -9275 9277 0
-9277 9278 0
5348 -9277 9279 0
-9279 9280 0
5349 -9279 9281 0
-9281 9282 0
5350 -9281 9283 0
-9283 9284 0
5351 -9283 9285 0
-9285 9286 0
5352 -9285 9287 0
-9287 9288 0
5353 -9287 9289 0
-9289 9290 0
5354 -9289 9291 0
-9291 9292 0
5355 -9291 9293 0
-9293 9294 0
5356 -9293 9295 0
-9295 9296 0
5357 -9295 9297 0
-9297 9298 0
5358 -9297 0
5344 9270 0
-9270 9299 0
5345 -9270 9272 0
-9272 9300 0
5346 -9272 9274 0
-9274 9301 0
5347 -9274 9276 0
-9276 9302 0
5348 -9276 9278 0
-9278 9303 0
5349 -9278 9280 0
-9280 9304 0
5350 -9280 9282 0
-9282 9305 0
5351 -9282 9284 0
-9284 9306 0
5352 -9284 9286 0
-9286 9307 0
5353 -9286 9288 0
-9288 9308 0
5354 -9288 9290 0
-9290 9309 0
5355 -9290 9292 0
-9292 9310 0
5356 -9292 9294 0
-9294 9311 0
5357 -9294 9296 0
-9296 9312 0
5358 -9296 9298 0
-9298 9313 0
5359 -9298 0
5345 9299 0
5346 -9299 9300 0
5347 -9300 9301 0
5348 -9301 9302 0
5349 -9302 9303 0
5350 -9303 9304 0
5351 -9304 9305 0
5352 -9305 9306 0
5353 -9306 9307 0
5354 -9307 9308 0
5355 -9308 9309 0
5356 -9309 9310 0
5357 -9310 9311 0
5358 -9311 9312 0
5359 -9312 9313 0
5360 -9313 0
-5343 9314 0
-9314 9315 0
-5344 -9314 9316 0
-9316 9317 0
-5345 -9316 9318 0
-9318 9319 0
-5346 -9318 0
-5344 9315 0
-9315 9320 0
-5345 -9315 9317 0
-9317 9321 0
-5346 -9317 9319 0
-9319 9322 0
-5347 -9319 0
-5345 9320 0
-9320 9323 0
-5346 -9320 9321 0
-9321 9324 0
-5347 -9321 9322 0
-9322 9325 0
-5348 -9322 0
-5346 9323 0
-9323 9326 0
-5347 -9323 9324 0
-9324 9327 0
-5348 -9324 9325 0
-9325 9328 0
-5349 -9325 0
-5347 9326 0
-9326 9329 0
-5348 -9326 9327 0
-9327 9330 0
-5349 -9327 9328 0
-9328 9331 0
-5350 -9328 0
-5348 9329 0
-9329 9332 0
-5349 -9329 9330 0
-9330 9333 0
-5350 -9330 9331 0
-9331 9334 0
-5351 -9331 0
-5349 9332 0
-9332 9335 0
-5350 -9332 9333 0
-9333 9336 0
-5351 -9333 9334 0
-9334 9337 0
-5352 -9334 0
-5350 9335 0
-9335 9338 0
-5351 -9335 9336 0
-9336 9339 0
-5352 -9336 9337 0
-9337 9340 0
-5353 -9337 0
-5351 9338 0
-9338 9341 0
-5352 -9338 9339 0
-9339 9342 0
-5353 -9339 9340 0
-9340 9343 0
-5354 -9340 0
-5352 9341 0
-9341 9344 0
-5353 -9341 9342 0
-9342 9345 0
-5354 -9342 9343 0
-9343 9346 0
-5355 -9343 0
-5353 9344 0
-9344 9347 0
-5354 -9344 9345 0
-9345 9348 0
-5355 -9345 9346 0
-9346 9349 0
-5356 -9346 0
-5354 9347 0
-9347 9350 0
-5355 -9347 9348 0
-9348 9351 0
-5356 -9348 9349 0
-9349 9352 0
-5357 -9349 0
-5355 9350 0
-9350 9353 0
-5356 -9350 9351 0
-9351 9354 0
-5357 -9351 9352 0
-9352 9355 0
-5358 -9352 0
-5356 9353 0
-9353 9356 0
-5357 -9353 9354 0
-9354 9357 0
-5358 -9354 9355 0
-9355 9358 0
-5359 -9355 0
-5357 9356 0
-5358 -9356 9357 0
-5359 -9357 9358 0
-5360 -9358 0
5361 9359 0
-9359 9360 0
5362 -9359 9361 0
-9361 9362 0
5363 -9361 9363 0
-9363 9364 0
5364 -9363 9365 0
-9365 9366 0
5365 -9365 9367 0
-9367 9368 0
5366 -9367 9369 0
-9369 9370 0
5367 -9369 9371 0
-9371 9372 0
5368 -9371 9373 0
-9373 9374 0
5369 -9373 9375 0
-9375 9376 0
5370 -9375 9377 0
-9377 9378 0
5371 -9377 9379 0
-9379 9380 0
5372 -9379 9381 0
-9381 9382 0
5373 -9381 9383 0
-9383 9384 0
5374 -9383 9385 0
-9385 9386 0
5375 -9385 9387 0
-9387 9388 0
5376 -9387 0
5362 9360 0
-9360 9389 0
5363 -9360 9362 0
-9362 9390 0
5364 -9362 9364 0
-9364 9391 0
5365 -9364 9366 0
-9366 9392 0
5366 -9366 9368 0
-9368 9393 0
5367 -9368 9370 0
-9370 9394 0
5368 -9370 9372 0
-9372 9395 0
5369 -9372 9374 0
-9374 9396 0
5370 -9374 9376 0
-9376 9397 0
5371 -9376 9378 0
-9378 9398 0
5372 -9378 9380 0
-9380 9399 0
5373 -9380 9382 0
-9382 9400 0
5374 -9382 9384 0
-9384 9401 0
5375 -9384 9386 0
-9386 9402 0
5376 -9386 9388 0
-9388 9403 0
5377 -9388 0
5363 9389 0
5364 -9389 9390 0
5365 -9390 9391 0
5366 -9391 9392 0
5367 -9392 9393 0
5368 -9393 9394 0
5369 -9394 9395 0
5370 -9395 9396 0
5371 -9396 9397 0
5372 -9397 9398 0
5373 -9398 9399 0
5374 -9399 9400 0
5375 -9400 9401 0
5376 -9401 9402 0
5377 -9402 9403 0
5378 -9403 0
-5361 9404 0
-9404 9405 0
-5362 -9404 9406 0
-9406 9407 0
-5363 -9406 9408 0
-9408 9409 0
-5364 -9408 0
-5362 9405 0
-9405 9410 0
-5363 -9405 9407 0
-9407 9411 0
-5364 -9407 9409 0
-9409 9412 0
-5365 -9409 0
-5363 9410 0
-9410 9413 0
-5364 -9410 9411 0
-9411 9414 0
-5365 -9411 9412 0
-9412 9415 0
-5366 -9412 0
-5364 9413 0
-9413 9416 0
-5365 -9413 9414 0
-9414 9417 0
-5366 -9414 9415 0
-9415 9418 0
-5367 -9415 0
-5365 9416 0
-9416 9419 0
-5366 -9416 9417 0
-9417 9420 0
-5367 -9417 9418 0
-9418 9421 0
-5368 -9418 0
-5366 9419 0
-9419 9422 0
-5367 -9419 9420 0
-9420 9423 0
-5368 -9420 9421 0
-9421 9424 0
-5369 -9421 0
-5367 9422 0
-9422 9425 0
-5368 -9422 9423 0
-9423 9426 0
-5369 -9423 9424 0
-9424 9427 0
-5370 -9424 0
-5368 9425 0
-9425 9428 0
-5369 -9425 9426 0
-9426 9429 0
-5370 -9426 9427 0
-9427 9430 0
-5371 -9427 0
-5369 9428 0
-9428 9431 0
-5370 -9428 9429 0
-9429 9432 0
-5371 -9429 9430 0
-9430 9433 0
-5372 -9430 0
-5370 9431 0
-9431 9434 0
-5371 -9431 9432 0
-9432 9435 0
-5372 -9432 9433 0
-9433 9436 0
-5373 -9433 0
-5371 9434 0
-9434 9437 0
-5372 -9434 9435 0
-9435 9438 0
-5373 -9435 9436 0
-9436 9439 0
-5374 -9436 0
-5372 9437 0
-9437 9440 0
-5373 -9437 9438 0
-9438 9441 0
-5374 -9438 9439 0
-9439 9442 0
-5375 -9439 0
-5373 9440 0
-9440 9443 0
-5374 -9440 9441 0
-9441 9444 0
-5375 -9441 9442 0
-9442 9445 0
-5376 -9442 0
-5374 9443 0
-9443 9446 0
-5375 -9443 9444 0
-9444 9447 0
-5376 -9444 9445 0
-9445 9448 0
-5377 -9445 0
-5375 9446 0
-5376 -9446 9447 0
-5377 -9447 9448 0
-5378 -9448 0
5379 9449 0
-9449 9450 0
5380 -9449 9451 0
-9451 9452 0
5381 -9451 9453 0
-9453 9454 0
5382 -9453 9455 0
-9455 9456 0
5383 -9455 9457 0
-9457 9458 0
5384 -9457 9459 0
-9459 9460 0
5385 -9459 9461 0
-9461 9462 0
5386 -9461 9463 0
-9463 9464 0
5387 -9463 9465 0
-9465 9466 0
5388 -9465 9467 0
-9467 9468 0
5389 -9467 9469 0
-9469 9470 0
5390 -9469 9471 0
-9471 9472 0
5391 -9471 9473 0
-9473 9474 0
5392 -9473 9475 0
-9475 9476 0
5393 -9475 9477 0
-9477 9478 0
5394 -9477 0
5380 9450 0
-9450 9479 0
5381 -9450 9452 0
-9452 9480 0
5382 -9452 9454 0
-9454 9481 0
5383 -9454 9456 0
-9456 9482 0
5384 -9456 9458 0
-9458 9483 0
5385 -9458 9460 0
-9460 9484 0
5386 -9460 9462 0
-9462 9485 0
5387 -9462 9464 0
-9464 9486 0
5388 -9464 9466 0
-9466 9487 0
5389 -9466 9468 0
-9468 9488 0
5390 -9468 9470 0
-9470 9489 0
5391 -9470 9472 0
-9472 9490 0
5392 -9472 9474 0
-9474 9491 0
5393 -9474 9476 0
-9476 9492 0
5394 -9476 9478 0
-9478 9493 0
5395 -9478 0
5381 9479 0
5382 -9479 9480 0
5383 -9480 9481 0
5384 -9481 9482 0
5385 -9482 9483 0
5386 -9483 9484 0
5387 -9484 9485 0
5388 -9485 9486 0
5389 -9486 9487 0
5390 -9487 9488 0
5391 -9488 9489 0
5392 -9489 9490 0
5393 -9490 9491 0
5394 -9491 9492 0
5395 -9492 9493 0
5396 -9493 0
-5379 9494 0
-9494 9495 0
-5380 -9494 9496 0
-9496 9497 0
-5381 -9496 9498 0
-9498 9499 0
-5382 -9498 0
-5380 9495 0
-9495 9500 0
-5381 -9495 9497 0
-9497 9501 0
-5382 -9497 9499 0
-9499 9502 0
-5383 -9499 0
-5381 9500 0
-9500 9503 0
-5382 -9500 9501 0
-9501 9504 0
-5383 -9501 9502 0
-9502 9505 0
-5384 -9502 0
-5382 9503 0
-9503 9506 0
-5383 -9503 9504 0
-9504 9507 0
-5384 -9504 9505 0
-9505 9508 0
-5385 -9505 0
-5383 9506 0
-9506 9509 0
-5384 -9506 9507 0
-9507 9510 0
-5385 -9507 9508 0
-9508 9511 0
-5386 -9508 0
-5384 9509 0
-9509 9512 0
-5385 -9509 9510 0
-9510 9513 0
-5386 -9510 9511 0
-9511 9514 0
-5387 -9511 0
-5385 9512 0
-9512 9515 0
-5386 -9512 9513 0
-9513 9516 0
-5387 -9513 9514 0
-9514 9517 0
-5388 -9514 0
-5386 9515 0
-9515 9518 0
-5387 -9515 9516 0
-9516 9519 0
-5388 -9516 9517 0
-9517 9520 0
-5389 -9517 0
-5387 9518 0
-9518 9521 0
-5388 -9518 9519 0
-9519 9522 0
-5389 -9519 9520 0
-9520 9523 0
-5390 -9520 0
-5388 9521 0
-9521 9524 0
-5389 -9521 9522 0
-9522 9525 0
-5390 -9522 9523 0
-9523 9526 0
-5391 -9523 0
-5389 9524 0
-9524 9527 0
-5390 -9524 9525 0
-9525 9528 0
-5391 -9525 9526 0
-9526 9529 0
-5392 -9526 0
-5390 9527 0
-9527 9530 0
-5391 -9527 9528 0
-9528 9531 0
-5392 -9528 9529 0
-9529 9532 0
-5393 -9529 0
-5391 9530 0
-9530 9533 0
-5392 -9530 9531 0
-9531 9534 0
-5393 -9531 9532 0
-9532 9535 0
-5394 -9532 0
-5392 9533 0
-9533 9536 0
-5393 -9533 9534 0
-9534 9537 0
-5394 -9534 9535 0
-9535 9538 0
-5395 -9535 0
-5393 9536 0
-5394 -9536 9537 0
-5395 -9537 9538 0
-5396 -9538 0
5073 9539 0
-9539 9540 0
5091 -9539 9541 0
-9541 9542 0
5109 -9541 9543 0
-9543 9544 0
5127 -9543 9545 0
-9545 9546 0
5145 -9545 9547 0
-9547 9548 0
5163 -9547 9549 0
-9549 9550 0
5181 -9549 9551 0
-9551 9552 0
5199 -9551 9553 0
-9553 9554 0
5217 -9553 9555 0
-9555 9556 0
5235 -9555 9557 0
-9557 9558 0
5253 -9557 9559 0
-9559 9560 0
5271 -9559 9561 0
-9561 9562 0
5289 -9561 9563 0
-9563 9564 0
5307 -9563 9565 0
-9565 9566 0
5325 -9565 9567 0
-9567 9568 0
5343 -9567 0
5091 9540 0
-9540 9569 0
5109 -9540 9542 0
-9542 9570 0
5127 -9542 9544 0
-9544 9571 0
5145 -9544 9546 0
-9546 9572 0
5163 -9546 9548 0
-9548 9573 0
5181 -9548 9550 0
-9550 9574 0
5199 -9550 9552 0
-9552 9575 0
5217 -9552 9554 0
-9554 9576 0
5235 -9554 9556 0
-9556 9577 0
5253 -9556 9558 0
-9558 9578 0
5271 -9558 9560 0
-9560 9579 0
5289 -9560 9562 0
-9562 9580 0
5307 -9562 9564 0
-9564 9581 0
5325 -9564 9566 0
-9566 9582 0
5343 -9566 9568 0
-9568 9583 0
5361 -9568 0
5109 9569 0
5127 -9569 9570 0
5145 -9570 9571 0
5163 -9571 9572 0
5181 -9572 9573 0
5199 -9573 9574 0
5217 -9574 9575 0
5235 -9575 9576 0
5253 -9576 9577 0
5271 -9577 9578 0
5289 -9578 9579 0
5307 -9579 9580 0
5325 -9580 9581 0
5343 -9581 9582 0
5361 -9582 9583 0
5379 -9583 0
-5073 9584 0
-9584 9585 0
-5091 -9584 9586 0
-9586 9587 0
-5109 -9586 9588 0
-9588 9589 0
-5127 -9588 0
-5091 9585 0
-9585 9590 0
-5109 -9585 9587 0
-9587 9591 0
-5127 -9587 9589 0
-9589 9592 0
-5145 -9589 0
-5109 9590 0
-9590 9593 0
-5127 -9590 9591 0
-9591 9594 0
-5145 -9591 9592 0
-9592 9595 0
-5163 -9592 0
-5127 9593 0
-9593 9596 0
-5145 -9593 9594 0
-9594 9597 0
-5163 -9594 9595 0
-9595 9598 0
-5181 -9595 0
-5145 9596 0
-9596 9599 0
-5163 -9596 9597 0
-9597 9600 0
-5181 -9597 9598 0
-9598 9601 0
-5199 -9598 0
-5163 9599 0
-9599 9602 0
-5181 -9599 9600 0
-9600 9603 0
-5199 -9600 9601 0
-9601 9604 0
-5217 -9601 0
-5181 9602 0
-9602 9605 0
-5199 -9602 9603 0
-9603 9606 0
-5217 -9603 9604 0
-9604 9607 0
-5235 -9604 0
-5199 9605 0
-9605 9608 0
-5217 -9605 9606 0
-9606 9609 0
-5235 -9606 9607 0
-9607 9610 0
-5253 -9607 0
-5217 9608 0
-9608 9611 0
-5235 -9608 9609 0
-9609 9612 0
-5253 -9609 9610 0
-9610 9613 0
-5271 -9610 0
-5235 9611 0
-9611 9614 0
-5253 -9611 9612 0
-9612 9615 0
-5271 -9612 9613 0
-9613 9616 0
-5289 -9613 0
-5253 9614 0
-9614 9617 0
-5271 -9614 9615 0
-9615 9618 0
-5289 -9615 9616 0
-9616 9619 0
-5307 -9616 0
-5271 9617 0
-9617 9620 0
-5289 -9617 9618 0
-9618 9621 0
-5307 -9618 9619 0
-9619 9622 0
-5325 -9619 0
-5289 9620 0
-9620 9623 0
-5307 -9620 9621 0
-9621 9624 0
-5325 -9621 9622 0
-9622 9625 0
-5343 -9622 0
-5307 9623 0
-9623 9626 0
-5325 -9623 9624 0
-9624 9627 0
-5343 -9624 9625 0
-9625 9628 0
-5361 -9625 0
-5325 9626 0
-5343 -9626 9627 0
-5361 -9627 9628 0
-5379 -9628 0
5055 9629 0
-9629 9630 0
5092 -9629 9631 0
-9631 9632 0
5110 -9631 9633 0
-9633 9634 0
5128 -9633 9635 0
-9635 9636 0
5146 -9635 9637 0
-9637 9638 0
5164 -9637 9639 0
-9639 9640 0
5182 -9639 9641 0
-9641 9642 0
5200 -9641 9643 0
-9643 9644 0
5218 -9643 9645 0
-9645 9646 0
5236 -9645 9647 0
-9647 9648 0
5254 -9647 9649 0
-9649 9650 0
5272 -9649 9651 0
-9651 9652 0
5290 -9651 9653 0
-9653 9654 0
5308 -9653 9655 0
-9655 9656 0
5326 -9655 9657 0
-9657 9658 0
5344 -9657 0
5092 9630 0
-9630 9659 0
5110 -9630 9632 0
-9632 9660 0
5128 -9632 9634 0
-9634 9661 0
5146 -9634 9636 0
-9636 9662 0
5164 -9636 9638 0
-9638 9663 0
5182 -9638 9640 0
-9640 9664 0
5200 -9640 9642 0
-9642 9665 0
5218 -9642 9644 0
-9644 9666 0
5236 -9644 9646 0
-9646 9667 0
5254 -9646 9648 0
-9648 9668 0
5272 -9648 9650 0
-9650 9669 0
5290 -9650 9652 0
-9652 9670 0
5308 -9652 9654 0
-9654 9671 0
5326 -9654 9656 0
-9656 9672 0
5344 -9656 9658 0
-9658 9673 0
5362 -9658 0
5110 9659 0
5128 -9659 9660 0
5146 -9660 9661 0
5164 -9661 9662 0
5182 -9662 9663 0
5200 -9663 9664 0
5218 -9664 9665 0
5236 -9665 9666 0
5254 -9666 9667 0
5272 -9667 9668 0
5290 -9668 9669 0
5308 -9669 9670 0
5326 -9670 9671 0
5344 -9671 9672 0
5362 -9672 9673 0
5380 -9673 0
-5055 9674 0
-9674 9675 0
-5092 -9674 9676 0
-9676 9677 0
-5110 -9676 9678 0
-9678 9679 0
-5128 -9678 0
-5092 9675 0
-9675 9680 0
-5110 -9675 9677 0
-9677 9681 0
-5128 -9677 9679 0
-9679 9682 0
-5146 -9679 0
-5110 9680 0
-9680 9683 0
-5128 -9680 9681 0
-9681 9684 0
-5146 -9681 9682 0
-9682 9685 0
-5164 -9682 0
-5128 9683 0
-9683 9686 0
-5146 -9683 9684 0
-9684 9687 0
-5164 -9684 9685 0
-9685 9688 0
-5182 -9685 0
-5146 9686 0
-9686 9689 0
-5164 -9686 9687 0
-9687 9690 0
-5182 -9687 9688 0
-9688 9691 0
-5200 -9688 0
-5164 9689 0
-9689 9692 0
-5182 -9689 9690 0
-9690 9693 0
-5200 -9690 9691 0
-9691 9694 0
-5218 -9691 0
-5182 9692 0
-9692 9695 0
-5200 -9692 9693 0
-9693 9696 0
-5218 -9693 9694 0
-9694 9697 0
-5236 -9694 0
-5200 9695 0
-9695 9698 0
-5218 -9695 9696 0
-9696 9699 0
-5236 -9696 9697 0
-9697 9700 0
-5254 -9697 0
-5218 9698 0
-9698 9701 0
-5236 -9698 9699 0
-9699 9702 0
-5254 -9699 9700 0
-9700 9703 0
-5272 -9700 0
-5236 9701 0
-9701 9704 0
-5254 -9701 9702 0
-9702 9705 0
-5272 -9702 9703 0
-9703 9706 0
-5290 -9703 0
-5254 9704 0
-9704 9707 0
-5272 -9704 9705 0
-9705 9708 0
-5290 -9705 9706 0
-9706 9709 0
-5308 -9706 0
-5272 9707 0
-9707 9710 0
-5290 -9707 9708 0
-9708 9711 0
-5308 -9708 9709 0
-9709 9712 0
-5326 -9709 0
-5290 9710 0
-9710 9713 0
-5308 -9710 9711 0
-9711 9714 0
-5326 -9711 9712 0
-9712 9715 0
-5344 -9712 0
-5308 9713 0
-9713 9716 0
-5326 -9713 9714 0
-9714 9717 0
-5344 -9714 9715 0
-9715 9718 0
-5362 -9715 0
-5326 9716 0
-5344 -9716 9717 0
-5362 -9717 9718 0
-5380 -9718 0
5056 9719 0
-9719 9720 0
5074 -9719 9721 0
-9721 9722 0
5111 -9721 9723 0
-9723 9724 0
5129 -9723 9725 0
-9725 9726 0
5147 -9725 9727 0
-9727 9728 0
5165 -9727 9729 0
-9729 9730 0
5183 -9729 9731 0
-9731 9732 0
5201 -9731 9733 0
-9733 9734 0
5219 -9733 9735 0
-9735 9736 0
5237 -9735 9737 0
-9737 9738 0
5255 -9737 9739 0
-9739 9740 0
5273 -9739 9741 0
-9741 9742 0
5291 -9741 9743 0
-9743 9744 0
5309 -9743 9745 0
-9745 9746 0
5327 -9745 9747 0
-9747 9748 0
5345 -9747 0
5074 9720 0
-9720 9749 0
5111 -9720 9722 0
-9722 9750 0
5129 -9722 9724 0
-9724 9751 0
5147 -9724 9726 0
-9726 9752 0
5165 -9726 9728 0
-9728 9753 0
5183 -9728 9730 0
-9730 9754 0
5201 -9730 9732 0
-9732 9755 0
5219 -9732 9734 0
-9734 9756 0
5237 -9734 9736 0
-9736 9757 0
5255 -9736 9738 0
-9738 9758 0
5273 -9738 9740 0
-9740 9759 0
5291 -9740 9742 0
-9742 9760 0
5309 -9742 9744 0
-9744 9761 0
5327 -9744 9746 0
-9746 9762 0
5345 -9746 9748 0
-9748 9763 0
5363 -9748 0
5111 9749 0
5129 -9749 9750 0
5147 -9750 9751 0
5165 -9751 9752 0
5183 -9752 9753 0
5201 -9753 9754 0
5219 -9754 9755 0
5237 -9755 9756 0
5255 -9756 9757 0
5273 -9757 9758 0
5291 -9758 9759 0
5309 -9759 9760 0
5327 -9760 9761 0
5345 -9761 9762 0
5363 -9762 9763 0
5381 -9763 0
-5056 9764 0
-9764 9765 0
-5074 -9764 9766 0
-9766 9767 0
-5111 -9766 9768 0
-9768 9769 0
-5129 -9768 0
-5074 9765 0
-9765 9770 0
-5111 -9765 9767 0
-9767 9771 0
-5129 -9767 9769 0
-9769 9772 0
-5147 -9769 0
-5111 9770 0
-9770 9773 0
-5129 -9770 9771 0
-9771 9774 0
-5147 -9771 9772 0
-9772 9775 0
-5165 -9772 0
-5129 9773 0
-9773 9776 0
-5147 -9773 9774 0
-9774 9777 0
-5165 -9774 9775 0
-9775 9778 0
-5183 -9775 0
-5147 9776 0
-9776 9779 0
-5165 -9776 9777 0
-9777 9780 0
-5183 -9777 9778 0
-9778 9781 0
-5201 -9778 0
-5165 9779 0
-9779 9782 0
-5183 -9779 9780 0
-9780 9783 0
-5201 -9780 9781 0
-9781 9784 0
-5219 -9781 0
-5183 9782 0
-9782 9785 0
-5201 -9782 9783 0
-9783 9786 0
-5219 -9783 9784 0
-9784 9787 0
-5237 -9784 0
-5201 9785 0
-9785 9788 0
-5219 -9785 9786 0
-9786 9789 0
-5237 -9786 9787 0
-9787 9790 0
-5255 -9787 0
-5219 9788 0
-9788 9791 0
-5237 -9788 9789 0
-9789 9792 0
-5255 -9789 9790 0
-9790 9793 0
-5273 -9790 0
-5237 9791 0
-9791 9794 0
-5255 -9791 9792 0
-9792 9795 0
-5273 -9792 9793 0
-9793 9796 0
-5291 -9793 0
-5255 9794 0
-9794 9797 0
-5273 -9794 9795 0
-9795 9798 0
-5291 -9795 9796 0
-9796 9799 0
-5309 -9796 0
-5273 9797 0
-9797 9800 0
-5291 -9797 9798 0
-9798 9801 0
-5309 -9798 9799 0
-9799 9802 0
-5327 -9799 0
-5291 9800 0
-9800 9803 0
-5309 -9800 9801 0
-9801 9804 0
-5327 -9801 9802 0
-9802 9805 0
-5345 -9802 0
-5309 9803 0
-9803 9806 0
-5327 -9803 9804 0
-9804 9807 0
-5345 -9804 9805 0
-9805 9808 0
-5363 -9805 0
-5327 9806 0
-5345 -9806 9807 0
-5363 -9807 9808 0
-5381 -9808 0
5057 9809 0
-9809 9810 0
5075 -9809 9811 0
-9811 9812 0
5093 -9811 9813 0
-9813 9814 0
5130 -9813 9815 0
-9815 9816 0
5148 -9815 9817 0
-9817 9818 0
5166 -9817 9819 0
-9819 9820 0
5184 -9819 9821 0
-9821 9822 0
5202 -9821 9823 0
-9823 9824 0
5220 -9823 9825 0
-9825 9826 0
5238 -9825 9827 0
-9827 9828 0
5256 -9827 9829 0
-9829 9830 0
5274 -9829 9831 0
-9831 9832 0
5292 -9831 9833 0
-9833 9834 0
5310 -9833 9835 0
-9835 9836 0
5328 -9835 9837 0
-9837 9838 0
5346 -9837 0
5075 9810 0
-9810 9839 0
5093 -9810 9812 0
-9812 9840 0
5130 -9812 9814 0
-9814 9841 0
5148 -9814 9816 0
-9816 9842 0
5166 -9816 9818 0
-9818 9843 0
5184 -9818 9820 0
-9820 9844 0
5202 -9820 9822 0
-9822 9845 0
5220 -9822 9824 0
-9824 9846 0
5238 -9824 9826 0
-9826 9847 0
5256 -9826 9828 0
-9828 9848 0
5274 -9828 9830 0
-9830 9849 0
5292 -9830 9832 0
-9832 9850 0
5310 -9832 9834 0
-9834 9851 0
5328 -9834 9836 0
-9836 9852 0
5346 -9836 9838 0
-9838 9853 0
5364 -9838 0
5093 9839 0
5130 -9839 9840 0
5148 -9840 9841 0
5166 -9841 9842 0
5184 -9842 9843 0
5202 -9843 9844 0
5220 -9844 9845 0
5238 -9845 9846 0
5256 -9846 9847 0
5274 -9847 9848 0
5292 -9848 9849 0
5310 -9849 9850 0
5328 -9850 9851 0
5346 -9851 9852 0
5364 -9852 9853 0
5382 -9853 0
-5057 9854 0
-9854 9855 0
-5075 -9854 9856 0
-9856 9857 0
-5093 -9856 9858 0
-9858 9859 0
-5130 -9858 0
-5075 9855 0
-9855 9860 0
-5093 -9855 9857 0
-9857 9861 0
-5130 -9857 9859 0
-9859 9862 0
-5148 -9859 0
-5093 9860 0
-9860 9863 0
-5130 -9860 9861 0
-9861 9864 0
-5148 -9861 9862 0
-9862 9865 0
-5166 -9862 0
-5130 9863 0
-9863 9866 0
-5148 -9863 9864 0
-9864 9867 0
-5166 -9864 9865 0
-9865 9868 0
-5184 -9865 0
-5148 9866 0
-9866 9869 0
-5166 -9866 9867 0
-9867 9870 0
-5184 -9867 9868 0
-9868 9871 0
-5202 -9868 0
-5166 9869 0
-9869 9872 0
-5184 -9869 9870 0
-9870 9873 0
-5202 -9870 9871 0
-9871 9874 0
-5220 -9871 0
-5184 9872 0
-9872 9875 0
-5202 -9872 9873 0
-9873 9876 0
-5220 -9873 9874 0
-9874 9877 0
-5238 -9874 0
-5202 9875 0
-9875 9878 0
-5220 -9875 9876 0
-9876 9879 0
-5238 -9876 9877 0
-9877 9880 0
-5256 -9877 0
-5220 9878 0
-9878 9881 0
-5238 -9878 9879 0
-9879 9882 0
-5256 -9879 9880 0
-9880 9883 0
-5274 -9880 0
-5238 9881 0
-9881 9884 0
-5256 -9881 9882 0
-9882 9885 0
-5274 -9882 9883 0
-9883 9886 0
-5292 -9883 0
-5256 9884 0
-9884 9887 0
-5274 -9884 9885 0
-9885 9888 0
-5292 -9885 9886 0
-9886 9889 0
-5310 -9886 0
-5274 9887 0
-9887 9890 0
-5292 -9887 9888 0
-9888 9891 0
-5310 -9888 9889 0
-9889 9892 0
-5328 -9889 0
-5292 9890 0
-9890 9893 0
-5310 -9890 9891 0
-9891 9894 0
-5328 -9891 9892 0
-9892 9895 0
-5346 -9892 0
-5310 9893 0
-9893 9896 0
-5328 -9893 9894 0
-9894 9897 0
-5346 -9894 9895 0
-9895 9898 0
-5364 -9895 0
-5328 9896 0
-5346 -9896 9897 0
-5364 -9897 9898 0
-5382 -9898 0
5058 9899 0
-9899 9900 0
5076 -9899 9901 0
-9901 9902 0
5094 -9901 9903 0
-9903 9904 0
5112 -9903 9905 0
-9905 9906 0
5149 -9905 9907 0
-9907 9908 0
5167 -9907 9909 0
-9909 9910 0
5185 -9909 9911 0
-9911 9912 0
5203 -9911 9913 0
-9913 9914 0
5221 -9913 9915 0
-9915 9916 0
5239 -9915 9917 0
-9917 9918 0
5257 -9917 9919 0
-9919 9920 0
5275 -9919 9921 0
-9921 9922 0
5293 -9921 9923 0
-9923 9924 0
5311 -9923 9925 0
-9925 9926 0
5329 -9925 9927 0
-9927 9928 0
5347 -9927 0
5076 9900 0
-9900 9929 0
5094 -9900 9902 0
-9902 9930 0
5112 -9902 9904 0
-9904 9931 0
5149 -9904 9906 0
-9906 9932 0
5167 -9906 9908 0
-9908 9933 0
5185 -9908 9910 0
-9910 9934 0
5203 -9910 9912 0
-9912 9935 0
5221 -9912 9914 0
-9914 9936 0
5239 -9914 9916 0
-9916 9937 0
5257 -9916 9918 0
-9918 9938 0
5275 -9918 9920 0
-9920 9939 0
5293 -9920 9922 0
-9922 9940 0
5311 -9922 9924 0
-9924 9941 0
5329 -9924 9926 0
-9926 9942 0
5347 -9926 9928 0
-9928 9943 0
5365 -9928 0
5094 9929 0
5112 -9929 9930 0
5149 -9930 9931 0
5167 -9931 9932 0
5185 -9932 9933 0
5203 -9933 9934 0
5221 -9934 9935 0
5239 -9935 9936 0
5257 -9936 9937 0
5275 -9937 9938 0
5293 -9938 9939 0
5311 -9939 9940 0
5329 -9940 9941 0
5347 -9941 9942 0
5365 -9942 9943 0
5383 -9943 0
-5058 9944 0
-9944 9945 0
-5076 -9944 9946 0
-9946 9947 0
-5094 -9946 9948 0
-9948 9949 0
-5112 -9948 0
-5076 9945 0
-9945 9950 0
-5094 -9945 9947 0
-9947 9951 0
-5112 -9947 9949 0
-9949 9952 0
-5149 -9949 0
-5094 9950 0
-9950 9953 0
-5112 -9950 9951 0
-9951 9954 0
-5149 -9951 9952 0
-9952 9955 0
-5167 -9952 0
-5112 9953 0
-9953 9956 0
-5149 -9953 9954 0
-9954 9957 0
-5167 -9954 9955 0
-9955 9958 0
-5185 -9955 0
-5149 9956 0
-9956 9959 0
-5167 -9956 9957 0
-9957 9960 0
-5185 -9957 9958 0
-9958 9961 0
-5203 -9958 0
-5167 9959 0
-9959 9962 0
-5185 -9959 9960 0
-9960 9963 0
-5203 -9960 9961 0
-9961 9964 0
-5221 -9961 0
-5185 9962 0
-9962 9965 0
-5203 -9962 9963 0
-9963 9966 0
-5221 -9963 9964 0
-9964 9967 0
-5239 -9964 0
-5203 9965 0
-9965 9968 0
-5221 -9965 9966 0
-9966 9969 0
-5239 -9966 9967 0
-9967 9970 0
-5257 -9967 0
-5221 9968 0
-9968 9971 0
-5239 -9968 9969 0
-9969 9972 0
-5257 -9969 9970 0
-9970 9973 0
-5275 -9970 0
-5239 9971 0
-9971 9974 0
-5257 -9971 9972 0
-9972 9975 0
-5275 -9972 9973 0
-9973 9976 0
-5293 -9973 0
-5257 9974 0
-9974 9977 0
-5275 -9974 9975 0
-9975 9978 0
-5293 -9975 9976 0
-9976 9979 0
-5311 -9976 0
-5275 9977 0
-9977 9980 0
-5293 -9977 9978 0
-9978 9981 0
-5311 -9978 9979 0
-9979 9982 0
-5329 -9979 0
-5293 9980 0
-9980 9983 0
-5311 -9980 9981 0
-9981 9984 0
-5329 -9981 9982 0
-9982 9985 0
-5347 -9982 0
-5311 9983 0
-9983 9986 0
-5329 -9983 9984 0
-9984 9987 0
-5347 -9984 9985 0
-9985 9988 0
-5365 -9985 0
-5329 9986 0
-5347 -9986 9987 0
-5365 -9987 9988 0
-5383 -9988 0
5059 9989 0
-9989 9990 0
5077 -9989 9991 0
-9991 9992 0
5095 -9991 9993 0
-9993 9994 0
5113 -9993 9995 0
-9995 9996 0
5131 -9995 9997 0
-9997 9998 0
5168 -9997 9999 0
-9999 10000 0
5186 -9999 10001 0
-10001 10002 0
5204 -10001 10003 0
-10003 10004 0
5222 -10003 10005 0
-10005 10006 0
5240 -10005 10007 0
-10007 10008 0
5258 -10007 10009 0
-10009 10010 0
5276 -10009 10011 0
-10011 10012 0
5294 -10011 10013 0
-10013 10014 0
5312 -10013 10015 0
-10015 10016 0
5330 -10015 10017 0
-10017 10018 0
5348 -10017 0
5077 9990 0
-9990 10019 0
5095 -9990 9992 0
-9992 10020 0
5113 -9992 9994 0
-9994 10021 0
5131 -9994 9996 0
-9996 10022 0
5168 -9996 9998 0
-9998 10023 0
5186 -9998 10000 0
-10000 10024 0
5204 -10000 10002 0
-10002 10025 0
5222 -10002 10004 0
-10004 10026 0
5240 -10004 10006 0
-10006 10027 0
5258 -10006 10008 0
-10008 10028 0
5276 -10008 10010 0
-10010 10029 0
5294 -10010 10012 0
-10012 10030 0
5312 -10012 10014 0
-10014 10031 0
5330 -10014 10016 0
-10016 10032 0
5348 -10016 10018 0
-10018 10033 0
5366 -10018 0
5095 10019 0
5113 -10019 10020 0
5131 -10020 10021 0
5168 -10021 10022 0
5186 -10022 10023 0
5204 -10023 10024 0
5222 -10024 10025 0
5240 -10025 10026 0
5258 -10026 10027 0
5276 -10027 10028 0
5294 -10028 10029 0
5312 -10029 10030 0
5330 -10030 10031 0
5348 -10031 10032 0
5366 -10032 10033 0
5384 -10033 0
-5059 10034 0
-10034 10035 0
-5077 -10034 10036 0
-10036 10037 0
-5095 -10036 10038 0
-10038 10039 0
-5113 -10038 0
-5077 10035 0
-10035 10040 0
-5095 -10035 10037 0
-10037 10041 0
-5113 -10037 10039 0
-10039 10042 0
-5131 -10039 0
-5095 10040 0
-10040 10043 0
-5113 -10040 10041 0
-10041 10044 0
-5131 -10041 10042 0
-10042 10045 0
-5168 -10042 0
-5113 10043 0
-10043 10046 0
-5131 -10043 10044 0
-10044 10047 0
-5168 -10044 10045 0
-10045 10048 0
-5186 -10045 0
-5131 10046 0
-10046 10049 0
-5168 -10046 10047 0
-10047 10050 0
-5186 -10047 10048 0
-10048 10051 0
-5204 -10048 0
-5168 10049 0
-10049 10052 0
-5186 -10049 10050 0
-10050 10053 0
-5204 -10050 10051 0
-10051 10054 0
-5222 -10051 0
-5186 10052 0
-10052 10055 0
-5204 -10052 10053 0
-10053 10056 0
-5222 -10053 10054 0
-10054 10057 0
-5240 -10054 0
-5204 10055 0
-10055 10058 0
-5222 -10055 10056 0
-10056 10059 0
-5240 -10056 10057 0
-10057 10060 0
-5258 -10057 0
-5222 10058 0
-10058 10061 0
-5240 -10058 10059 0
-10059 10062 0
-5258 -10059 10060 0
-10060 10063 0
-5276 -10060 0
-5240 10061 0
-10061 10064 0
-5258 -10061 10062 0
-10062 10065 0
-5276 -10062 10063 0
-10063 10066 0
-5294 -10063 0
-5258 10064 0
-10064 10067 0
-5276 -10064 10065 0
-10065 10068 0
-5294 -10065 10066 0
-10066 10069 0
-5312 -10066 0
-5276 10067 0
-10067 10070 0
-5294 -10067 10068 0
-10068 10071 0
-5312 -10068 10069 0
-10069 10072 0
-5330 -10069 0
-5294 10070 0
-10070 10073 0
-5312 -10070 10071 0
-10071 10074 0
-5330 -10071 10072 0
-10072 10075 0
-5348 -10072 0
-5312 10073 0
-10073 10076 0
-5330 -10073 10074 0
-10074 10077 0
-5348 -10074 10075 0
-10075 10078 0
-5366 -10075 0
-5330 10076 0
-5348 -10076 10077 0
-5366 -10077 10078 0
-5384 -10078 0
5060 10079 0
-10079 10080 0
5078 -10079 10081 0
-10081 10082 0
5096 -10081 10083 0
-10083 10084 0
5114 -10083 10085 0
-10085 10086 0
5132 -10085 10087 0
-10087 10088 0
5150 -10087 10089 0
-10089 10090 0
5187 -10089 10091 0
-10091 10092 0
5205 -10091 10093 0
-10093 10094 0
5223 -10093 10095 0
-10095 10096 0
5241 -10095 10097 0
-10097 10098 0
5259 -10097 10099 0
-10099 10100 0
5277 -10099 10101 0
-10101 10102 0
5295 -10101 10103 0
-10103 10104 0
5313 -10103 10105 0
-10105 10106 0
5331 -10105 10107 0
-10107 10108 0
5349 -10107 0
5078 10080 0
-10080 10109 0
5096 -10080 10082 0
-10082 10110 0
5114 -10082 10084 0
-10084 10111 0
5132 -10084 10086 0
-10086 10112 0
5150 -10086 10088 0
-10088 10113 0
5187 -10088 10090 0
-10090 10114 0
5205 -10090 10092 0
-10092 10115 0
5223 -10092 10094 0
-10094 10116 0
5241 -10094 10096 0
-10096 10117 0
5259 -10096 10098 0
-10098 10118 0
5277 -10098 10100 0
-10100 10119 0
5295 -10100 10102 0
-10102 10120 0
5313 -10102 10104 0
-10104 10121 0
5331 -10104 10106 0
-10106 10122 0
5349 -10106 10108 0
-10108 10123 0
5367 -10108 0
5096 10109 0
5114 -10109 10110 0
5132 -10110 10111 0
5150 -10111 10112 0
5187 -10112 10113 0
5205 -10113 10114 0
5223 -10114 10115 0
5241 -10115 10116 0
5259 -10116 10117 0
5277 -10117 10118 0
5295 -10118 10119 0
5313 -10119 10120 0
5331 -10120 10121 0
5349 -10121 10122 0
5367 -10122 10123 0
5385 -10123 0
-5060 10124 0
-10124 10125 0
-5078 -10124 10126 0
-10126 10127 0
-5096 -10126 10128 0
-10128 10129 0
-5114 -10128 0
-5078 10125 0
-10125 10130 0
-5096 -10125 10127 0
-10127 10131 0
-5114 -10127 10129 0
-10129 10132 0
-5132 -10129 0
-5096 10130 0
-10130 10133 0
-5114 -10130 10131 0
-10131 10134 0
-5132 -10131 10132 0
-10132 10135 0
-5150 -10132 0
-5114 10133 0
-10133 10136 0
-5132 -10133 10134 0
-10134 10137 0
-5150 -10134 10135 0
-10135 10138 0
-5187 -10135 0
-5132 10136 0
-10136 10139 0
-5150 -10136 10137 0
-10137 10140 0
-5187 -10137 10138 0
-10138 10141 0
-5205 -10138 0
-5150 10139 0
-10139 10142 0
-5187 -10139 10140 0
-10140 10143 0
-5205 -10140 10141 0
-10141 10144 0
-5223 -10141 0
-5187 10142 0
-10142 10145 0
-5205 -10142 10143 0
-10143 10146 0
-5223 -10143 10144 0
-10144 10147 0
-5241 -10144 0
-5205 10145 0
-10145 10148 0
-5223 -10145 10146 0
-10146 10149 0
-5241 -10146 10147 0
-10147 10150 0
-5259 -10147 0
-5223 10148 0
-10148 10151 0
-5241 -10148 10149 0
-10149 10152 0
-5259 -10149 10150 0
-10150 10153 0
-5277 -10150 0
-5241 10151 0
-10151 10154 0
-5259 -10151 10152 0
-10152 10155 0
-5277 -10152 10153 0
-10153 10156 0
-5295 -10153 0
-5259 10154 0
-10154 10157 0
-5277 -10154 10155 0
-10155 10158 0
-5295 -10155 10156 0
-10156 10159 0
-5313 -10156 0
-5277 10157 0
-10157 10160 0
-5295 -10157 10158 0
-10158 10161 0
-5313 -10158 10159 0
-10159 10162 0
-5331 -10159 0
-5295 10160 0
-10160 10163 0
-5313 -10160 10161 0
-10161 10164 0
-5331 -10161 10162 0
-10162 10165 0
-5349 -10162 0
-5313 10163 0
-10163 10166 0
-5331 -10163 10164 0
-10164 10167 0
-5349 -10164 10165 0
-10165 10168 0
-5367 -10165 0
-5331 10166 0
-5349 -10166 10167 0
-5367 -10167 10168 0
-5385 -10168 0
5061 10169 0
-10169 10170 0
5079 -10169 10171 0
-10171 10172 0
5097 -10171 10173 0
-10173 10174 0
5115 -10173 10175 0
-10175 10176 0
5133 -10175 10177 0
-10177 10178 0
5151 -10177 10179 0
-10179 10180 0
5169 -10179 10181 0
-10181 10182 0
5206 -10181 10183 0
-10183 10184 0
5224 -10183 10185 0
-10185 10186 0
5242 -10185 10187 0
-10187 10188 0
5260 -10187 10189 0
-10189 10190 0
5278 -10189 10191 0
-10191 10192 0
5296 -10191 10193 0
-10193 10194 0
5314 -10193 10195 0
-10195 10196 0
5332 -10195 10197 0
-10197 10198 0
5350 -10197 0
5079 10170 0
-10170 10199 0
5097 -10170 10172 0
-10172 10200 0
5115 -10172 10174 0
-10174 10201 0
5133 -10174 10176 0
-10176 10202 0
5151 -10176 10178 0
-10178 10203 0
5169 -10178 10180 0
-10180 10204 0
5206 -10180 10182 0
-10182 10205 0
5224 -10182 10184 0
-10184 10206 0
5242 -10184 10186 0
-10186 10207 0
5260 -10186 10188 0
-10188 10208 0
5278 -10188 10190 0
-10190 10209 0
5296 -10190 10192 0
-10192 10210 0
5314 -10192 10194 0
-10194 10211 0
5332 -10194 10196 0
-10196 10212 0
5350 -10196 10198 0
-10198 10213 0
5368 -10198 0
5097 10199 0
5115 -10199 10200 0
5133 -10200 10201 0
5151 -10201 10202 0
5169 -10202 10203 0
5206 -10203 10204 0
5224 -10204 10205 0
5242 -10205 10206 0
5260 -10206 10207 0
5278 -10207 10208 0
5296 -10208 10209 0
5314 -10209 10210 0
5332 -10210 10211 0
5350 -10211 10212 0
5368 -10212 10213 0
5386 -10213 0
-5061 10214 0
-10214 10215 0
-5079 -10214 10216 0
-10216 10217 0
-5097 -10216 10218 0
-10218 10219 0
-5115 -10218 0
-5079 10215 0
-10215 10220 0
-5097 -10215 10217 0
-10217 10221 0
-5115 -10217 10219 0
-10219 10222 0
-5133 -10219 0
-5097 10220 0
-10220 10223 0
-5115 -10220 10221 0
-10221 10224 0
-5133 -10221 10222 0
-10222 10225 0
-5151 -10222 0
-5115 10223 0
-10223 10226 0
-5133 -10223 10224 0
-10224 10227 0
-5151 -10224 10225 0
-10225 10228 0
-5169 -10225 0
-5133 10226 0
-10226 10229 0
-5151 -10226 10227 0
-10227 10230 0
-5169 -10227 10228 0
-10228 10231 0
-5206 -10228 0
-5151 10229 0
-10229 10232 0
-5169 -10229 10230 0
-10230 10233 0
-5206 -10230 10231 0
-10231 10234 0
-5224 -10231 0
-5169 10232 0
-10232 10235 0
-5206 -10232 10233 0
-10233 10236 0
-5224 -10233 10234 0
-10234 10237 0
-5242 -10234 0
-5206 10235 0
-10235 10238 0
-5224 -10235 10236 0
-10236 10239 0
-5242 -10236 10237 0
-10237 10240 0
-5260 -10237 0
-5224 10238 0
-10238 10241 0
-5242 -10238 10239 0
-10239 10242 0
-5260 -10239 10240 0
-10240 10243 0
-5278 -10240 0
-5242 10241 0
-10241 10244 0
-5260 -10241 10242 0
-10242 10245 0
-5278 -10242 10243 0
-10243 10246 0
-5296 -10243 0
-5260 10244 0
-10244 10247 0
-5278 -10244 10245 0
-10245 10248 0
-5296 -10245 10246 0
-10246 10249 0
-5314 -10246 0
-5278 10247 0
-10247 10250 0
-5296 -10247 10248 0
-10248 10251 0
-5314 -10248 10249 0
-10249 10252 0
-5332 -10249 0
-5296 10250 0
-10250 10253 0
-5314 -10250 10251 0
-10251 10254 0
-5332 -10251 10252 0
-10252 10255 0
-5350 -10252 0
-5314 10253 0
-10253 10256 0
-5332 -10253 10254 0
-10254 10257 0
-5350 -10254 10255 0
-10255 10258 0
-5368 -10255 0
-5332 10256 0
-5350 -10256 10257 0
-5368 -10257 10258 0
-5386 -10258 0
5062 10259 0
-10259 10260 0
5080 -10259 10261 0
-10261 10262 0
5098 -10261 10263 0
-10263 10264 0
5116 -10263 10265 0
-10265 10266 0
5134 -10265 10267 0
-10267 10268 0
5152 -10267 10269 0
-10269 10270 0
5170 -10269 10271 0
-10271 10272 0
5188 -10271 10273 0
-10273 10274 0
5225 -10273 10275 0
-10275 10276 0
5243 -10275 10277 0
-10277 10278 0
5261 -10277 10279 0
-10279 10280 0
5279 -10279 10281 0
-10281 10282 0
5297 -10281 10283 0
-10283 10284 0
5315 -10283 10285 0
-10285 10286 0
5333 -10285 10287 0
-10287 10288 0
5351 -10287 0
5080 10260 0
-10260 10289 0
5098 -10260 10262 0
-10262 10290 0
5116 -10262 10264 0
-10264 10291 0
5134 -10264 10266 0
-10266 10292 0
5152 -10266 10268 0
-10268 10293 0
5170 -10268 10270 0
-10270 10294 0
5188 -10270 10272 0
-10272 10295 0
5225 -10272 10274 0
-10274 10296 0
5243 -10274 10276 0
-10276 10297 0
5261 -10276 10278 0
-10278 10298 0
5279 -10278 10280 0
-10280 10299 0
5297 -10280 10282 0
-10282 10300 0
5315 -10282 10284 0
-10284 10301 0
5333 -10284 10286 0
-10286 10302 0
5351 -10286 10288 0
-10288 10303 0
5369 -10288 0
5098 10289 0
5116 -10289 10290 0
5134 -10290 10291 0
5152 -10291 10292 0
5170 -10292 10293 0
5188 -10293 10294 0
5225 -10294 10295 0
5243 -10295 10296 0
5261 -10296 10297 0
5279 -10297 10298 0
5297 -10298 10299 0
5315 -10299 10300 0
5333 -10300 10301 0
5351 -10301 10302 0
5369 -10302 10303 0
5387 -10303 0
-5062 10304 0
-10304 10305 0
-5080 -10304 10306 0
-10306 10307 0
-5098 -10306 10308 0
-10308 10309 0
-5116 -10308 0
-5080 10305 0
-10305 10310 0
-5098 -10305 10307 0
-10307 10311 0
-5116 -10307 10309 0
-10309 10312 0
-5134 -10309 0
-5098 10310 0
-10310 10313 0
-5116 -10310 10311 0
-10311 10314 0
-5134 -10311 10312 0
-10312 10315 0
-5152 -10312 0
-5116 10313 0
-10313 10316 0
-5134 -10313 10314 0
-10314 10317 0
-5152 -10314 10315 0
-10315 10318 0
-5170 -10315 0
-5134 10316 0
-10316 10319 0
-5152 -10316 10317 0
-10317 10320 0
-5170 -10317 10318 0
-10318 10321 0
-5188 -10318 0
-5152 10319 0
-10319 10322 0
-5170 -10319 10320 0
-10320 10323 0
-5188 -10320 10321 0
-10321 10324 0
-5225 -10321 0
-5170 10322 0
-10322 10325 0
-5188 -10322 10323 0
-10323 10326 0
-5225 -10323 10324 0
-10324 10327 0
-5243 -10324 0
-5188 10325 0
-10325 10328 0
-5225 -10325 10326 0
-10326 10329 0
-5243 -10326 10327 0
-10327 10330 0
-5261 -10327 0
-5225 10328 0
-10328 10331 0
-5243 -10328 10329 0
-10329 10332 0
-5261 -10329 10330 0
-10330 10333 0
-5279 -10330 0
-5243 10331 0
-10331 10334 0
-5261 -10331 10332 0
-10332 10335 0
-5279 -10332 10333 0
-10333 10336 0
-5297 -10333 0
-5261 10334 0
-10334 10337 0
-5279 -10334 10335 0
-10335 10338 0
-5297 -10335 10336 0
-10336 10339 0
-5315 -10336 0
-5279 10337 0
-10337 10340 0
-5297 -10337 10338 0
-10338 10341 0
-5315 -10338 10339 0
-10339 10342 0
-5333 -10339 0
-5297 10340 0
-10340 10343 0
-5315 -10340 10341 0
-10341 10344 0
-5333 -10341 10342 0
-10342 10345 0
-5351 -10342 0
-5315 10343 0
-10343 10346 0
-5333 -10343 10344 0
-10344 10347 0
-5351 -10344 10345 0
-10345 10348 0
-5369 -10345 0
-5333 10346 0
-5351 -10346 10347 0
-5369 -10347 10348 0
-5387 -10348 0
5063 10349 0
-10349 10350 0
5081 -10349 10351 0
-10351 10352 0
5099 -10351 10353 0
-10353 10354 0
5117 -10353 10355 0
-10355 10356 0
5135 -10355 10357 0
-10357 10358 0
5153 -10357 10359 0
-10359 10360 0
5171 -10359 10361 0
-10361 10362 0
5189 -10361 10363 0
-10363 10364 0
5207 -10363 10365 0
-10365 10366 0
5244 -10365 10367 0
-10367 10368 0
5262 -10367 10369 0
-10369 10370 0
5280 -10369 10371 0
-10371 10372 0
5298 -10371 10373 0
-10373 10374 0
5316 -10373 10375 0
-10375 10376 0
5334 -10375 10377 0
-10377 10378 0
5352 -10377 0
5081 10350 0
-10350 10379 0
5099 -10350 10352 0
-10352 10380 0
5117 -10352 10354 0
-10354 10381 0
5135 -10354 10356 0
-10356 10382 0
5153 -10356 10358 0
-10358 10383 0
5171 -10358 10360 0
-10360 10384 0
5189 -10360 10362 0
-10362 10385 0
5207 -10362 10364 0
-10364 10386 0
5244 -10364 10366 0
-10366 10387 0
5262 -10366 10368 0
-10368 10388 0
5280 -10368 10370 0
-10370 10389 0
5298 -10370 10372 0
-10372 10390 0
5316 -10372 10374 0
-10374 10391 0
5334 -10374 10376 0
-10376 10392 0
5352 -10376 10378 0
-10378 10393 0
5370 -10378 0
5099 10379 0
5117 -10379 10380 0
5135 -10380 10381 0
5153 -10381 10382 0
5171 -10382 10383 0
5189 -10383 10384 0
5207 -10384 10385 0
5244 -10385 10386 0
5262 -10386 10387 0
5280 -10387 10388 0
5298 -10388 10389 0
5316 -10389 10390 0
5334 -10390 10391 0
5352 -10391 10392 0
5370 -10392 10393 0
5388 -10393 0
-5063 10394 0
-10394 10395 0
-5081 -10394 10396 0
-10396 10397 0
-5099 -10396 10398 0
-10398 10399 0
-5117 -10398 0
-5081 10395 0
-10395 10400 0
-5099 -10395 10397 0
-10397 10401 0
-5117 -10397 10399 0
-10399 10402 0
-5135 -10399 0
-5099 10400 0
-10400 10403 0
-5117 -10400 10401 0
-10401 10404 0
-5135 -10401 10402 0
-10402 10405 0
-5153 -10402 0
-5117 10403 0
-10403 10406 0
-5135 -10403 10404 0
-10404 10407 0
-5153 -10404 10405 0
-10405 10408 0
-5171 -10405 0
-5135 10406 0
-10406 10409 0
-5153 -10406 10407 0
-10407 10410 0
-5171 -10407 10408 0
-10408 10411 0
-5189 -10408 0
-5153 10409 0
-10409 10412 0
-5171 -10409 10410 0
-10410 10413 0
-5189 -10410 10411 0
-10411 10414 0
-5207 -10411 0
-5171 10412 0
-10412 10415 0
-5189 -10412 10413 0
-10413 10416 0
-5207 -10413 10414 0
-10414 10417 0
-5244 -10414 0
-5189 10415 0
-10415 10418 0
-5207 -10415 10416 0
-10416 10419 0
-5244 -10416 10417 0
-10417 10420 0
-5262 -10417 0
-5207 10418 0
-10418 10421 0
-5244 -10418 10419 0
-10419 10422 0
-5262 -10419 10420 0
-10420 10423 0
-5280 -10420 0
-5244 10421 0
-10421 10424 0
-5262 -10421 10422 0
-10422 10425 0
-5280 -10422 10423 0
-10423 10426 0
-5298 -10423 0
-5262 10424 0
-10424 10427 0
-5280 -10424 10425 0
-10425 10428 0
-5298 -10425 10426 0
-10426 10429 0
-5316 -10426 0
-5280 10427 0
-10427 10430 0
-5298 -10427 10428 0
-10428 10431 0
-5316 -10428 10429 0
-10429 10432 0
-5334 -10429 0
-5298 10430 0
-10430 10433 0
-5316 -10430 10431 0
-10431 10434 0
-5334 -10431 10432 0
-10432 10435 0
-5352 -10432 0
-5316 10433 0
-10433 10436 0
-5334 -10433 10434 0
-10434 10437 0
-5352 -10434 10435 0
-10435 10438 0
-5370 -10435 0
-5334 10436 0
-5352 -10436 10437 0
-5370 -10437 10438 0
-5388 -10438 0
5064 10439 0
-10439 10440 0
5082 -10439 10441 0
-10441 10442 0
5100 -10441 10443 0
-10443 10444 0
5118 -10443 10445 0
-10445 10446 0
5136 -10445 10447 0
-10447 10448 0
5154 -10447 10449 0
-10449 10450 0
5172 -10449 10451 0
-10451 10452 0
5190 -10451 10453 0
-10453 10454 0
5208 -10453 10455 0
-10455 10456 0
5226 -10455 10457 0
-10457 10458 0
5263 -10457 10459 0
-10459 10460 0
5281 -10459 10461 0
-10461 10462 0
5299 -10461 10463 0
-10463 10464 0
5317 -10463 10465 0
-10465 10466 0
5335 -10465 10467 0
-10467 10468 0
5353 -10467 0
5082 10440 0
-10440 10469 0
5100 -10440 10442 0
-10442 10470 0
5118 -10442 10444 0
-10444 10471 0
5136 -10444 10446 0
-10446 10472 0
5154 -10446 10448 0
-10448 10473 0
5172 -10448 10450 0
-10450 10474 0
5190 -10450 10452 0
-10452 10475 0
5208 -10452 10454 0
-10454 10476 0
5226 -10454 10456 0
-10456 10477 0
5263 -10456 10458 0
-10458 10478 0
5281 -10458 10460 0
-10460 10479 0
5299 -10460 10462 0
-10462 10480 0
5317 -10462 10464 0
-10464 10481 0
5335 -10464 10466 0
-10466 10482 0
5353 -10466 10468 0
-10468 10483 0
5371 -10468 0
5100 10469 0
5118 -10469 10470 0
5136 -10470 10471 0
5154 -10471 10472 0
5172 -10472 10473 0
5190 -10473 10474 0
5208 -10474 10475 0
5226 -10475 10476 0
5263 -10476 10477 0
5281 -10477 10478 0
5299 -10478 10479 0
5317 -10479 10480 0
5335 -10480 10481 0
5353 -10481 10482 0
5371 -10482 10483 0
5389 -10483 0
-5064 10484 0
-10484 10485 0
-5082 -10484 10486 0
-10486 10487 0
-5100 -10486 10488 0
-10488 10489 0
-5118 -10488 0
-5082 10485 0
-10485 10490 0
-5100 -10485 10487 0
-10487 10491 0
-5118 -10487 10489 0
-10489 10492 0
-5136 -10489 0
-5100 10490 0
-10490 10493 0
-5118 -10490 10491 0
-10491 10494 0
-5136 -10491 10492 0
-10492 10495 0
-5154 -10492 0
-5118 10493 0
-10493 10496 0
-5136 -10493 10494 0
-10494 10497 0
-5154 -10494 10495 0
-10495 10498 0
-5172 -10495 0
-5136 10496 0
-10496 10499 0
-5154 -10496 10497 0
-10497 10500 0
-5172 -10497 10498 0
-10498 10501 0
-5190 -10498 0
-5154 10499 0
-10499 10502 0
-5172 -10499 10500 0
-10500 10503 0
-5190 -10500 10501 0
-10501 10504 0
-5208 -10501 0
-5172 10502 0
-10502 10505 0
-5190 -10502 10503 0
-10503 10506 0
-5208 -10503 10504 0
-10504 10507 0
-5226 -10504 0
-5190 10505 0
-10505 10508 0
-5208 -10505 10506 0
-10506 10509 0
-5226 -10506 10507 0
-10507 10510 0
-5263 -10507 0
-5208 10508 0
-10508 10511 0
-5226 -10508 10509 0
-10509 10512 0
-5263 -10509 10510 0
-10510 10513 0
-5281 -10510 0
-5226 10511 0
-10511 10514 0
-5263 -10511 10512 0
-10512 10515 0
-5281 -10512 10513 0
-10513 10516 0
-5299 -10513 0
-5263 10514 0
-10514 10517 0
-5281 -10514 10515 0
-10515 10518 0
-5299 -10515 10516 0
-10516 10519 0
-5317 -10516 0
-5281 10517 0
-10517 10520 0
-5299 -10517 10518 0
-10518 10521 0
-5317 -10518 10519 0
-10519 10522 0
-5335 -10519 0
-5299 10520 0
-10520 10523 0
-5317 -10520 10521 0
-10521 10524 0
-5335 -10521 10522 0
-10522 10525 0
-5353 -10522 0
-5317 10523 0
-10523 10526 0
-5335 -10523 10524 0
-10524 10527 0
-5353 -10524 10525 0
-10525 10528 0
-5371 -10525 0
-5335 10526 0
-5353 -10526 10527 0
-5371 -10527 10528 0
-5389 -10528 0
5065 10529 0
-10529 10530 0
5083 -10529 10531 0
-10531 10532 0
5101 -10531 10533 0
-10533 10534 0
5119 -10533 10535 0
-10535 10536 0
5137 -10535 10537 0
-10537 10538 0
5155 -10537 10539 0
-10539 10540 0
5173 -10539 10541 0
-10541 10542 0
5191 -10541 10543 0
-10543 10544 0
5209 -10543 10545 0
-10545 10546 0
5227 -10545 10547 0
-10547 10548 0
5245 -10547 10549 0
-10549 10550 0
5282 -10549 10551 0
-10551 10552 0
5300 -10551 10553 0
-10553 10554 0
5318 -10553 10555 0
-10555 10556 0
5336 -10555 10557 0
-10557 10558 0
5354 -10557 0
5083 10530 0
-10530 10559 0
5101 -10530 10532 0
-10532 10560 0
5119 -10532 10534 0
-10534 10561 0
5137 -10534 10536 0
-10536 10562 0
5155 -10536 10538 0
-10538 10563 0
5173 -10538 10540 0
-10540 10564 0
5191 -10540 10542 0
-10542 10565 0
5209 -10542 10544 0
-10544 10566 0
5227 -10544 10546 0
-10546 10567 0
5245 -10546 10548 0
-10548 10568 0
5282 -10548 10550 0
-10550 10569 0
5300 -10550 10552 0
-10552 10570 0
5318 -10552 10554 0
-10554 10571 0
5336 -10554 10556 0
-10556 10572 0
5354 -10556 10558 0
-10558 10573 0
5372 -10558 0
5101 10559 0
5119 -10559 10560 0
5137 -10560 10561 0
5155 -10561 10562 0
5173 -10562 10563 0
5191 -10563 10564 0
5209 -10564 10565 0
5227 -10565 10566 0
5245 -10566 10567 0
5282 -10567 10568 0
5300 -10568 10569 0
5318 -10569 10570 0
5336 -10570 10571 0
5354 -10571 10572 0
5372 -10572 10573 0
5390 -10573 0
-5065 10574 0
-10574 10575 0
-5083 -10574 10576 0
-10576 10577 0
-5101 -10576 10578 0
-10578 10579 0
-5119 -10578 0
-5083 10575 0
-10575 10580 0
-5101 -10575 10577 0
-10577 10581 0
-5119 -10577 10579 0
-10579 10582 0
-5137 -10579 0
-5101 10580 0
-10580 10583 0
-5119 -10580 10581 0
-10581 10584 0
-5137 -10581 10582 0
-10582 10585 0
-5155 -10582 0
-5119 10583 0
-10583 10586 0
-5137 -10583 10584 0
-10584 10587 0
-5155 -10584 10585 0
-10585 10588 0
-5173 -10585 0
-5137 10586 0
-10586 10589 0
-5155 -10586 10587 0
-10587 10590 0
-5173 -10587 10588 0
-10588 10591 0
-5191 -10588 0
-5155 10589 0
-10589 10592 0
-5173 -10589 10590 0
-10590 10593 0
-5191 -10590 10591 0
-10591 10594 0
-5209 -10591 0
-5173 10592 0
-10592 10595 0
-5191 -10592 10593 0
-10593 10596 0
-5209 -10593 10594 0
-10594 10597 0
-5227 -10594 0
-5191 10595 0
-10595 10598 0
-5209 -10595 10596 0
-10596 10599 0
-5227 -10596 10597 0
-10597 10600 0
-5245 -10597 0
-5209 10598 0
-10598 10601 0
-5227 -10598 10599 0
-10599 10602 0
-5245 -10599 10600 0
-10600 10603 0
-5282 -10600 0
-5227 10601 0
-10601 10604 0
-5245 -10601 10602 0
-10602 10605 0
-5282 -10602 10603 0
-10603 10606 0
-5300 -10603 0
-5245 10604 0
-10604 10607 0
-5282 -10604 10605 0
-10605 10608 0
-5300 -10605 10606 0
-10606 10609 0
-5318 -10606 0
-5282 10607 0
-10607 10610 0
-5300 -10607 10608 0
-10608 10611 0
-5318 -10608 10609 0
-10609 10612 0
-5336 -10609 0
-5300 10610 0
-10610 10613 0
-5318 -10610 10611 0
-10611 10614 0
-5336 -10611 10612 0
-10612 10615 0
-5354 -10612 0
-5318 10613 0
-10613 10616 0
-5336 -10613 10614 0
-10614 10617 0
-5354 -10614 10615 0
-10615 10618 0
-5372 -10615 0
-5336 10616 0
-5354 -10616 10617 0
-5372 -10617 10618 0
-5390 -10618 0
5066 10619 0
-10619 10620 0
5084 -10619 10621 0
-10621 10622 0
5102 -10621 10623 0
-10623 10624 0
5120 -10623 10625 0
-10625 10626 0
5138 -10625 10627 0
-10627 10628 0
5156 -10627 10629 0
-10629 10630 0
5174 -10629 10631 0
-10631 10632 0
5192 -10631 10633 0
-10633 10634 0
5210 -10633 10635 0
-10635 10636 0
5228 -10635 10637 0
-10637 10638 0
5246 -10637 10639 0
-10639 10640 0
5264 -10639 10641 0
-10641 10642 0
5301 -10641 10643 0
-10643 10644 0
5319 -10643 10645 0
-10645 10646 0
5337 -10645 10647 0
-10647 10648 0
5355 -10647 0
5084 10620 0
-10620 10649 0
5102 -10620 10622 0
-10622 10650 0
5120 -10622 10624 0
-10624 10651 0
5138 -10624 10626 0
-10626 10652 0
5156 -10626 10628 0
-10628 10653 0
5174 -10628 10630 0
-10630 10654 0
5192 -10630 10632 0
-10632 10655 0
5210 -10632 10634 0
-10634 10656 0
5228 -10634 10636 0
-10636 10657 0
5246 -10636 10638 0
-10638 10658 0
5264 -10638 10640 0
-10640 10659 0
5301 -10640 10642 0
-10642 10660 0
5319 -10642 10644 0
-10644 10661 0
5337 -10644 10646 0
-10646 10662 0
5355 -10646 10648 0
-10648 10663 0
5373 -10648 0
5102 10649 0
5120 -10649 10650 0
5138 -10650 10651 0
5156 -10651 10652 0
5174 -10652 10653 0
5192 -10653 10654 0
5210 -10654 10655 0
5228 -10655 10656 0
5246 -10656 10657 0
5264 -10657 10658 0
5301 -10658 10659 0
5319 -10659 10660 0
5337 -10660 10661 0
5355 -10661 10662 0
5373 -10662 10663 0
5391 -10663 0
-5066 10664 0
-10664 10665 0
-5084 -10664 10666 0
-10666 10667 0
-5102 -10666 10668 0
-10668 10669 0
-5120 -10668 0
-5084 10665 0
-10665 10670 0
-5102 -10665 10667 0
-10667 10671 0
-5120 -10667 10669 0
-10669 10672 0
-5138 -10669 0
-5102 10670 0
-10670 10673 0
-5120 -10670 10671 0
-10671 10674 0
-5138 -10671 10672 0
-10672 10675 0
-5156 -10672 0
-5120 10673 0
-10673 10676 0
-5138 -10673 10674 0
-10674 10677 0
-5156 -10674 10675 0
-10675 10678 0
-5174 -10675 0
-5138 10676 0
-10676 10679 0
-5156 -10676 10677 0
-10677 10680 0
-5174 -10677 10678 0
-10678 10681 0
-5192 -10678 0
-5156 10679 0
-10679 10682 0
-5174 -10679 10680 0
-10680 10683 0
-5192 -10680 10681 0
-10681 10684 0
-5210 -10681 0
-5174 10682 0
-10682 10685 0
-5192 -10682 10683 0
-10683 10686 0
-5210 -10683 10684 0
-10684 10687 0
-5228 -10684 0
-5192 10685 0
-10685 10688 0
-5210 -10685 10686 0
-10686 10689 0
-5228 -10686 10687 0
-10687 10690 0
-5246 -10687 0
-5210 10688 0
-10688 10691 0
-5228 -10688 10689 0
-10689 10692 0
-5246 -10689 10690 0
-10690 10693 0
-5264 -10690 0
-5228 10691 0
-10691 10694 0
-5246 -10691 10692 0
-10692 10695 0
-5264 -10692 10693 0
-10693 10696 0
-5301 -10693 0
-5246 10694 0
-10694 10697 0
-5264 -10694 10695 0
-10695 10698 0
-5301 -10695 10696 0
-10696 10699 0
-5319 -10696 0
-5264 10697 0
-10697 10700 0
-5301 -10697 10698 0
-10698 10701 0
-5319 -10698 10699 0
-10699 10702 0
-5337 -10699 0
-5301 10700 0
-10700 10703 0
-5319 -10700 10701 0
-10701 10704 0
-5337 -10701 10702 0
-10702 10705 0
-5355 -10702 0
-5319 10703 0
-10703 10706 0
-5337 -10703 10704 0
-10704 10707 0
-5355 -10704 10705 0
-10705 10708 0
-5373 -10705 0
-5337 10706 0
-5355 -10706 10707 0
-5373 -10707 10708 0
-5391 -10708 0
5067 10709 0
-10709 10710 0
5085 -10709 10711 0
-10711 10712 0
5103 -10711 10713 0
-10713 10714 0
5121 -10713 10715 0
-10715 10716 0
5139 -10715 10717 0
-10717 10718 0
5157 -10717 10719 0
-10719 10720 0
5175 -10719 10721 0
-10721 10722 0
5193 -10721 10723 0
-10723 10724 0
5211 -10723 10725 0
-10725 10726 0
5229 -10725 10727 0
-10727 10728 0
5247 -10727 10729 0
-10729 10730 0
5265 -10729 10731 0
-10731 10732 0
5283 -10731 10733 0
-10733 10734 0
5320 -10733 10735 0
-10735 10736 0
5338 -10735 10737 0
-10737 10738 0
5356 -10737 0
5085 10710 0
-10710 10739 0
5103 -10710 10712 0
-10712 10740 0
5121 -10712 10714 0
-10714 10741 0
5139 -10714 10716 0
-10716 10742 0
5157 -10716 10718 0
-10718 10743 0
5175 -10718 10720 0
-10720 10744 0
5193 -10720 10722 0
-10722 10745 0
5211 -10722 10724 0
-10724 10746 0
5229 -10724 10726 0
-10726 10747 0
5247 -10726 10728 0
-10728 10748 0
5265 -10728 10730 0
-10730 10749 0
5283 -10730 10732 0
-10732 10750 0
5320 -10732 10734 0
-10734 10751 0
5338 -10734 10736 0
-10736 10752 0
5356 -10736 10738 0
-10738 10753 0
5374 -10738 0
5103 10739 0
5121 -10739 10740 0
5139 -10740 10741 0
5157 -10741 10742 0
5175 -10742 10743 0
5193 -10743 10744 0
5211 -10744 10745 0
5229 -10745 10746 0
5247 -10746 10747 0
5265 -10747 10748 0
5283 -10748 10749 0
5320 -10749 10750 0
5338 -10750 10751 0
5356 -10751 10752 0
5374 -10752 10753 0
5392 -10753 0
-5067 10754 0
-10754 10755 0
-5085 -10754 10756 0
-10756 10757 0
-5103 -10756 10758 0
-10758 10759 0
-5121 -10758 0
-5085 10755 0
-10755 10760 0
-5103 -10755 10757 0
-10757 10761 0
-5121 -10757 10759 0
-10759 10762 0
-5139 -10759 0
-5103 10760 0
-10760 10763 0
-5121 -10760 10761 0
-10761 10764 0
-5139 -10761 10762 0
-10762 10765 0
-5157 -10762 0
-5121 10763 0
-10763 10766 0
-5139 -10763 10764 0
-10764 10767 0
-5157 -10764 10765 0
-10765 10768 0
-5175 -10765 0
-5139 10766 0
-10766 10769 0
-5157 -10766 10767 0
-10767 10770 0
-5175 -10767 10768 0
-10768 10771 0
-5193 -10768 0
-5157 10769 0
-10769 10772 0
-5175 -10769 10770 0
-10770 10773 0
-5193 -10770 10771 0
-10771 10774 0
-5211 -10771 0
-5175 10772 0
-10772 10775 0
-5193 -10772 10773 0
-10773 10776 0
-5211 -10773 10774 0
-10774 10777 0
-5229 -10774 0
-5193 10775 0
-10775 10778 0
-5211 -10775 10776 0
-10776 10779 0
-5229 -10776 10777 0
-10777 10780 0
-5247 -10777 0
-5211 10778 0
-10778 10781 0
-5229 -10778 10779 0
-10779 10782 0
-5247 -10779 10780 0
-10780 10783 0
-5265 -10780 0
-5229 10781 0
-10781 10784 0
-5247 -10781 10782 0
-10782 10785 0
-5265 -10782 10783 0
-10783 10786 0
-5283 -10783 0
-5247 10784 0
-10784 10787 0
-5265 -10784 10785 0
-10785 10788 0
-5283 -10785 10786 0
-10786 10789 0
-5320 -10786 0
-5265 10787 0
-10787 10790 0
-5283 -10787 10788 0
-10788 10791 0
-5320 -10788 10789 0
-10789 10792 0
-5338 -10789 0
-5283 10790 0
-10790 10793 0
-5320 -10790 10791 0
-10791 10794 0
-5338 -10791 10792 0
-10792 10795 0
-5356 -10792 0
-5320 10793 0
-10793 10796 0
-5338 -10793 10794 0
-10794 10797 0
-5356 -10794 10795 0
-10795 10798 0
-5374 -10795 0
-5338 10796 0
-5356 -10796 10797 0
-5374 -10797 10798 0
-5392 -10798 0
5068 10799 0
-10799 10800 0
5086 -10799 10801 0
-10801 10802 0
5104 -10801 10803 0
-10803 10804 0
5122 -10803 10805 0
-10805 10806 0
5140 -10805 10807 0
-10807 10808 0
5158 -10807 10809 0
-10809 10810 0
5176 -10809 10811 0
-10811 10812 0
5194 -10811 10813 0
-10813 10814 0
5212 -10813 10815 0
-10815 10816 0
5230 -10815 10817 0
-10817 10818 0
5248 -10817 10819 0
-10819 10820 0
5266 -10819 10821 0
-10821 10822 0
5284 -10821 10823 0
-10823 10824 0
5302 -10823 10825 0
-10825 10826 0
5339 -10825 10827 0
-10827 10828 0
5357 -10827 0
5086 10800 0
-10800 10829 0
5104 -10800 10802 0
-10802 10830 0
5122 -10802 10804 0
-10804 10831 0
5140 -10804 10806 0
-10806 10832 0
5158 -10806 10808 0
-10808 10833 0
5176 -10808 10810 0
-10810 10834 0
5194 -10810 10812 0
-10812 10835 0
5212 -10812 10814 0
-10814 10836 0
5230 -10814 10816 0
-10816 10837 0
5248 -10816 10818 0
-10818 10838 0
5266 -10818 10820 0
-10820 10839 0
5284 -10820 10822 0
-10822 10840 0
5302 -10822 10824 0
-10824 10841 0
5339 -10824 10826 0
-10826 10842 0
5357 -10826 10828 0
-10828 10843 0
5375 -10828 0
5104 10829 0
5122 -10829 10830 0
5140 -10830 10831 0
5158 -10831 10832 0
5176 -10832 10833 0
5194 -10833 10834 0
5212 -10834 10835 0
5230 -10835 10836 0
5248 -10836 10837 0
5266 -10837 10838 0
5284 -10838 10839 0
5302 -10839 10840 0
5339 -10840 10841 0
5357 -10841 10842 0
5375 -10842 10843 0
5393 -10843 0
-5068 10844 0
-10844 10845 0
-5086 -10844 10846 0
-10846 10847 0
-5104 -10846 10848 0
-10848 10849 0
-5122 -10848 0
-5086 10845 0
-10845 10850 0
-5104 -10845 10847 0
-10847 10851 0
-5122 -10847 10849 0
-10849 10852 0
-5140 -10849 0
-5104 10850 0
-10850 10853 0
-5122 -10850 10851 0
-10851 10854 0
-5140 -10851 10852 0
-10852 10855 0
-5158 -10852 0
-5122 10853 0
-10853 10856 0
-5140 -10853 10854 0
-10854 10857 0
-5158 -10854 10855 0
-10855 10858 0
-5176 -10855 0
-5140 10856 0
-10856 10859 0
-5158 -10856 10857 0
-10857 10860 0
-5176 -10857 10858 0
-10858 10861 0
-5194 -10858 0
-5158 10859 0
-10859 10862 0
-5176 -10859 10860 0
-10860 10863 0
-5194 -10860 10861 0
-10861 10864 0
-5212 -10861 0
-5176 10862 0
-10862 10865 0
-5194 -10862 10863 0
-10863 10866 0
-5212 -10863 10864 0
-10864 10867 0
-5230 -10864 0
-5194 10865 0
-10865 10868 0
-5212 -10865 10866 0
-10866 10869 0
-5230 -10866 10867 0
-10867 10870 0
-5248 -10867 0
-5212 10868 0
-10868 10871 0
-5230 -10868 10869 0
-10869 10872 0
-5248 -10869 10870 0
-10870 10873 0
-5266 -10870 0
-5230 10871 0
-10871 10874 0
-5248 -10871 10872 0
-10872 10875 0
-5266 -10872 10873 0
-10873 10876 0
-5284 -10873 0
-5248 10874 0
-10874 10877 0
-5266 -10874 10875 0
-10875 10878 0
-5284 -10875 10876 0
-10876 10879 0
-5302 -10876 0
-5266 10877 0
-10877 10880 0
-5284 -10877 10878 0
-10878 10881 0
-5302 -10878 10879 0
-10879 10882 0
-5339 -10879 0
-5284 10880 0
-10880 10883 0
-5302 -10880 10881 0
-10881 10884 0
-5339 -10881 10882 0
-10882 10885 0
-5357 -10882 0
-5302 10883 0
-10883 10886 0
-5339 -10883 10884 0
-10884 10887 0
-5357 -10884 10885 0
-10885 10888 0
-5375 -10885 0
-5339 10886 0
-5357 -10886 10887 0
-5375 -10887 10888 0
-5393 -10888 0
5069 10889 0
-10889 10890 0
5087 -10889 10891 0
-10891 10892 0
5105 -10891 10893 0
-10893 10894 0
5123 -10893 10895 0
-10895 10896 0
5141 -10895 10897 0
-10897 10898 0
5159 -10897 10899 0
-10899 10900 0
5177 -10899 10901 0
-10901 10902 0
5195 -10901 10903 0
-10903 10904 0
5213 -10903 10905 0
-10905 10906 0
5231 -10905 10907 0
-10907 10908 0
5249 -10907 10909 0
-10909 10910 0
5267 -10909 10911 0
-10911 10912 0
5285 -10911 10913 0
-10913 10914 0
5303 -10913 10915 0
-10915 10916 0
5321 -10915 10917 0
-10917 10918 0
5358 -10917 0
5087 10890 0
-10890 10919 0
5105 -10890 10892 0
-10892 10920 0
5123 -10892 10894 0
-10894 10921 0
5141 -10894 10896 0
-10896 10922 0
5159 -10896 10898 0
-10898 10923 0
5177 -10898 10900 0
-10900 10924 0
5195 -10900 10902 0
-10902 10925 0
5213 -10902 10904 0
-10904 10926 0
5231 -10904 10906 0
-10906 10927 0
5249 -10906 10908 0
-10908 10928 0
5267 -10908 10910 0
-10910 10929 0
5285 -10910 10912 0
-10912 10930 0
5303 -10912 10914 0
-10914 10931 0
5321 -10914 10916 0
-10916 10932 0
5358 -10916 10918 0
-10918 10933 0
5376 -10918 0
5105 10919 0
5123 -10919 10920 0
5141 -10920 10921 0
5159 -10921 10922 0
5177 -10922 10923 0
5195 -10923 10924 0
5213 -10924 10925 0
5231 -10925 10926 0
5249 -10926 10927 0
5267 -10927 10928 0
5285 -10928 10929 0
5303 -10929 10930 0
5321 -10930 10931 0
5358 -10931 10932 0
5376 -10932 10933 0
5394 -10933 0
-5069 10934 0
-10934 10935 0
-5087 -10934 10936 0
-10936 10937 0
-5105 -10936 10938 0
-10938 10939 0
-5123 -10938 0
-5087 10935 0
-10935 10940 0
-5105 -10935 10937 0
-10937 10941 0
-5123 -10937 10939 0
-10939 10942 0
-5141 -10939 0
-5105 10940 0
-10940 10943 0
-5123 -10940 10941 0
-10941 10944 0
-5141 -10941 10942 0
-10942 10945 0
-5159 -10942 0
-5123 10943 0
-10943 10946 0
-5141 -10943 10944 0
-10944 10947 0
-5159 -10944 10945 0
-10945 10948 0
-5177 -10945 0
-5141 10946 0
-10946 10949 0
-5159 -10946 10947 0
-10947 10950 0
-5177 -10947 10948 0
-10948 10951 0
-5195 -10948 0
-5159 10949 0
-10949 10952 0
-5177 -10949 10950 0
-10950 10953 0
-5195 -10950 10951 0
-10951 10954 0
-5213 -10951 0
-5177 10952 0
-10952 10955 0
-5195 -10952 10953 0
-10953 10956 0
-5213 -10953 10954 0
-10954 10957 0
-5231 -10954 0
-5195 10955 0
-10955 10958 0
-5213 -10955 10956 0
-10956 10959 0
-5231 -10956 10957 0
-10957 10960 0
-5249 -10957 0
-5213 10958 0
-10958 10961 0
-5231 -10958 10959 0
-10959 10962 0
-5249 -10959 10960 0
-10960 10963 0
-5267 -10960 0
-5231 10961 0
-10961 10964 0
-5249 -10961 10962 0
-10962 10965 0
-5267 -10962 10963 0
-10963 10966 0
-5285 -10963 0
-5249 10964 0
-10964 10967 0
-5267 -10964 10965 0
-10965 10968 0
-5285 -10965 10966 0
-10966 10969 0
-5303 -10966 0
-5267 10967 0
-10967 10970 0
-5285 -10967 10968 0
-10968 10971 0
-5303 -10968 10969 0
-10969 10972 0
-5321 -10969 0
-5285 10970 0
-10970 10973 0
-5303 -10970 10971 0
-10971 10974 0
-5321 -10971 10972 0
-10972 10975 0
-5358 -10972 0
-5303 10973 0
-10973 10976 0
-5321 -10973 10974 0
-10974 10977 0
-5358 -10974 10975 0
-10975 10978 0
-5376 -10975 0
-5321 10976 0
-5358 -10976 10977 0
-5376 -10977 10978 0
-5394 -10978 0
5070 10979 0
-10979 10980 0
5088 -10979 10981 0
-10981 10982 0
5106 -10981 10983 0
-10983 10984 0
5124 -10983 10985 0
-10985 10986 0
5142 -10985 10987 0
-10987 10988 0
5160 -10987 10989 0
-10989 10990 0
5178 -10989 10991 0
-10991 10992 0
5196 -10991 10993 0
-10993 10994 0
5214 -10993 10995 0
-10995 10996 0
5232 -10995 10997 0
-10997 10998 0
5250 -10997 10999 0
-10999 11000 0
5268 -10999 11001 0
-11001 11002 0
5286 -11001 11003 0
-11003 11004 0
5304 -11003 11005 0
-11005 11006 0
5322 -11005 11007 0
-11007 11008 0
5340 -11007 0
5088 10980 0
-10980 11009 0
5106 -10980 10982 0
-10982 11010 0
5124 -10982 10984 0
-10984 11011 0
5142 -10984 10986 0
-10986 11012 0
5160 -10986 10988 0
-10988 11013 0
5178 -10988 10990 0
-10990 11014 0
5196 -10990 10992 0
-10992 11015 0
5214 -10992 10994 0
-10994 11016 0
5232 -10994 10996 0
-10996 11017 0
5250 -10996 10998 0
-10998 11018 0
5268 -10998 11000 0
-11000 11019 0
5286 -11000 11002 0
-11002 11020 0
5304 -11002 11004 0
-11004 11021 0
5322 -11004 11006 0
-11006 11022 0
5340 -11006 11008 0
-11008 11023 0
5377 -11008 0
5106 11009 0
5124 -11009 11010 0
5142 -11010 11011 0
5160 -11011 11012 0
5178 -11012 11013 0
5196 -11013 11014 0
5214 -11014 11015 0
5232 -11015 11016 0
5250 -11016 11017 0
5268 -11017 11018 0
5286 -11018 11019 0
5304 -11019 11020 0
5322 -11020 11021 0
5340 -11021 11022 0
5377 -11022 11023 0
5395 -11023 0
-5070 11024 0
-11024 11025 0
-5088 -11024 11026 0
-11026 11027 0
-5106 -11026 11028 0
-11028 11029 0
-5124 -11028 0
-5088 11025 0
-11025 11030 0
-5106 -11025 11027 0
-11027 11031 0
-5124 -11027 11029 0
-11029 11032 0
-5142 -11029 0
-5106 11030 0
-11030 11033 0
-5124 -11030 11031 0
-11031 11034 0
-5142 -11031 11032 0
-11032 11035 0
-5160 -11032 0
-5124 11033 0
-11033 11036 0
-5142 -11033 11034 0
-11034 11037 0
-5160 -11034 11035 0
-11035 11038 0
-5178 -11035 0
-5142 11036 0
-11036 11039 0
-5160 -11036 11037 0
-11037 11040 0
-5178 -11037 11038 0
-11038 11041 0
-5196 -11038 0
-5160 11039 0
-11039 11042 0
-5178 -11039 11040 0
-11040 11043 0
-5196 -11040 11041 0
-11041 11044 0
-5214 -11041 0
-5178 11042 0
-11042 11045 0
-5196 -11042 11043 0
-11043 11046 0
-5214 -11043 11044 0
-11044 11047 0
-5232 -11044 0
-5196 11045 0
-11045 11048 0
-5214 -11045 11046 0
-11046 11049 0
-5232 -11046 11047 0
-11047 11050 0
-5250 -11047 0
-5214 11048 0
-11048 11051 0
-5232 -11048 11049 0
-11049 11052 0
-5250 -11049 11050 0
-11050 11053 0
-5268 -11050 0
-5232 11051 0
-11051 11054 0
-5250 -11051 11052 0
-11052 11055 0
-5268 -11052 11053 0
-11053 11056 0
-5286 -11053 0
-5250 11054 0
-11054 11057 0
-5268 -11054 11055 0
-11055 11058 0
-5286 -11055 11056 0
-11056 11059 0
-5304 -11056 0
-5268 11057 0
-11057 11060 0
-5286 -11057 11058 0
-11058 11061 0
-5304 -11058 11059 0
-11059 11062 0
-5322 -11059 0
-5286 11060 0
-11060 11063 0
-5304 -11060 11061 0
-11061 11064 0
-5322 -11061 11062 0
-11062 11065 0
-5340 -11062 0
-5304 11063 0
-11063 11066 0
-5322 -11063 11064 0
-11064 11067 0
-5340 -11064 11065 0
-11065 11068 0
-5377 -11065 0
-5322 11066 0
-5340 -11066 11067 0
-5377 -11067 11068 0
-5395 -11068 0
5071 11069 0
-11069 11070 0
5089 -11069 11071 0
-11071 11072 0
5107 -11071 11073 0
-11073 11074 0
5125 -11073 11075 0
-11075 11076 0
5143 -11075 11077 0
-11077 11078 0
5161 -11077 11079 0
-11079 11080 0
5179 -11079 11081 0
-11081 11082 0
5197 -11081 11083 0
-11083 11084 0
5215 -11083 11085 0
-11085 11086 0
5233 -11085 11087 0
-11087 11088 0
5251 -11087 11089 0
-11089 11090 0
5269 -11089 11091 0
-11091 11092 0
5287 -11091 11093 0
-11093 11094 0
5305 -11093 11095 0
-11095 11096 0
5323 -11095 11097 0
-11097 11098 0
5341 -11097 0
5089 11070 0
-11070 11099 0
5107 -11070 11072 0
-11072 11100 0
5125 -11072 11074 0
-11074 11101 0
5143 -11074 11076 0
-11076 11102 0
5161 -11076 11078 0
-11078 11103 0
5179 -11078 11080 0
-11080 11104 0
5197 -11080 11082 0
-11082 11105 0
5215 -11082 11084 0
-11084 11106 0
5233 -11084 11086 0
-11086 11107 0
5251 -11086 11088 0
-11088 11108 0
5269 -11088 11090 0
-11090 11109 0
5287 -11090 11092 0
-11092 11110 0
5305 -11092 11094 0
-11094 11111 0
5323 -11094 11096 0
-11096 11112 0
5341 -11096 11098 0
-11098 11113 0
5359 -11098 0
5107 11099 0
5125 -11099 11100 0
5143 -11100 11101 0
5161 -11101 11102 0
5179 -11102 11103 0
5197 -11103 11104 0
5215 -11104 11105 0
5233 -11105 11106 0
5251 -11106 11107 0
5269 -11107 11108 0
5287 -11108 11109 0
5305 -11109 11110 0
5323 -11110 11111 0
5341 -11111 11112 0
5359 -11112 11113 0
5396 -11113 0
-5071 11114 0
-11114 11115 0
-5089 -11114 11116 0
-11116 11117 0
-5107 -11116 11118 0
-11118 11119 0
-5125 -11118 0
-5089 11115 0
-11115 11120 0
-5107 -11115 11117 0
-11117 11121 0
-5125 -11117 11119 0
-11119 11122 0
-5143 -11119 0
-5107 11120 0
-11120 11123 0
-5125 -11120 11121 0
-11121 11124 0
-5143 -11121 11122 0
-11122 11125 0
-5161 -11122 0
-5125 11123 0
-11123 11126 0
-5143 -11123 11124 0
-11124 11127 0
-5161 -11124 11125 0
-11125 11128 0
-5179 -11125 0
-5143 11126 0
-11126 11129 0
-5161 -11126 11127 0
-11127 11130 0
-5179 -11127 11128 0
-11128 11131 0
-5197 -11128 0
-5161 11129 0
-11129 11132 0
-5179 -11129 11130 0
-11130 11133 0
-5197 -11130 11131 0
-11131 11134 0
-5215 -11131 0
-5179 11132 0
-11132 11135 0
-5197 -11132 11133 0
-11133 11136 0
-5215 -11133 11134 0
-11134 11137 0
-5233 -11134 0
-5197 11135 0
-11135 11138 0
-5215 -11135 11136 0
-11136 11139 0
-5233 -11136 11137 0
-11137 11140 0
-5251 -11137 0
-5215 11138 0
-11138 11141 0
-5233 -11138 11139 0
-11139 11142 0
-5251 -11139 11140 0
-11140 11143 0
-5269 -11140 0
-5233 11141 0
-11141 11144 0
-5251 -11141 11142 0
-11142 11145 0
-5269 -11142 11143 0
-11143 11146 0
-5287 -11143 0
-5251 11144 0
-11144 11147 0
-5269 -11144 11145 0
-11145 11148 0
-5287 -11145 11146 0
-11146 11149 0
-5305 -11146 0
-5269 11147 0
-11147 11150 0
-5287 -11147 11148 0
-11148 11151 0
-5305 -11148 11149 0
-11149 11152 0
-5323 -11149 0
-5287 11150 0
-11150 11153 0
-5305 -11150 11151 0
-11151 11154 0
-5323 -11151 11152 0
-11152 11155 0
-5341 -11152 0
-5305 11153 0
-11153 11156 0
-5323 -11153 11154 0
-11154 11157 0
-5341 -11154 11155 0
-11155 11158 0
-5359 -11155 0
-5323 11156 0
-5341 -11156 11157 0
-5359 -11157 11158 0
-5396 -11158 0
5072 11159 0
-11159 11160 0
5090 -11159 11161 0
-11161 11162 0
5108 -11161 11163 0
-11163 11164 0
5126 -11163 11165 0
-11165 11166 0
5144 -11165 11167 0
-11167 11168 0
5162 -11167 11169 0
-11169 11170 0
5180 -11169 11171 0
-11171 11172 0
5198 -11171 11173 0
-11173 11174 0
5216 -11173 11175 0
-11175 11176 0
5234 -11175 11177 0
-11177 11178 0
5252 -11177 11179 0
-11179 11180 0
5270 -11179 11181 0
-11181 11182 0
5288 -11181 11183 0
-11183 11184 0
5306 -11183 11185 0
-11185 11186 0
5324 -11185 11187 0
-11187 11188 0
5342 -11187 0
5090 11160 0
-11160 11189 0
5108 -11160 11162 0
-11162 11190 0
5126 -11162 11164 0
-11164 11191 0
5144 -11164 11166 0
-11166 11192 0
5162 -11166 11168 0
-11168 11193 0
5180 -11168 11170 0
-11170 11194 0
5198 -11170 11172 0
-11172 11195 0
5216 -11172 11174 0
-11174 11196 0
5234 -11174 11176 0
-11176 11197 0
5252 -11176 11178 0
-11178 11198 0
5270 -11178 11180 0
-11180 11199 0
5288 -11180 11182 0
-11182 11200 0
5306 -11182 11184 0
-11184 11201 0
5324 -11184 11186 0
-11186 11202 0
5342 -11186 11188 0
-11188 11203 0
5360 -11188 0
5108 11189 0
5126 -11189 11190 0
5144 -11190 11191 0
5162 -11191 11192 0
5180 -11192 11193 0
5198 -11193 11194 0
5216 -11194 11195 0
5234 -11195 11196 0
5252 -11196 11197 0
5270 -11197 11198 0
5288 -11198 11199 0
5306 -11199 11200 0
5324 -11200 11201 0
5342 -11201 11202 0
5360 -11202 11203 0
5378 -11203 0
-5072 11204 0
-11204 11205 0
-5090 -11204 11206 0
-11206 11207 0
-5108 -11206 11208 0
-11208 11209 0
-5126 -11208 0
-5090 11205 0
-11205 11210 0
-5108 -11205 11207 0
-11207 11211 0
-5126 -11207 11209 0
-11209 11212 0
-5144 -11209 0
-5108 11210 0
-11210 11213 0
-5126 -11210 11211 0
-11211 11214 0
-5144 -11211 11212 0
-11212 11215 0
-5162 -11212 0
-5126 11213 0
-11213 11216 0
-5144 -11213 11214 0
-11214 11217 0
-5162 -11214 11215 0
-11215 11218 0
-5180 -11215 0
-5144 11216 0
-11216 11219 0
-5162 -11216 11217 0
-11217 11220 0
-5180 -11217 11218 0
-11218 11221 0
-5198 -11218 0
-5162 11219 0
-11219 11222 0
-5180 -11219 11220 0
-11220 11223 0
-5198 -11220 11221 0
-11221 11224 0
-5216 -11221 0
-5180 11222 0
-11222 11225 0
-5198 -11222 11223 0
-11223 11226 0
-5216 -11223 11224 0
-11224 11227 0
-5234 -11224 0
-5198 11225 0
-11225 11228 0
-5216 -11225 11226 0
-11226 11229 0
-5234 -11226 11227 0
-11227 11230 0
-5252 -11227 0
-5216 11228 0
-11228 11231 0
-5234 -11228 11229 0
-11229 11232 0
-5252 -11229 11230 0
-11230 11233 0
-5270 -11230 0
-5234 11231 0
-11231 11234 0
-5252 -11231 11232 0
-11232 11235 0
-5270 -11232 11233 0
-11233 11236 0
-5288 -11233 0
-5252 11234 0
-11234 11237 0
-5270 -11234 11235 0
-11235 11238 0
-5288 -11235 11236 0
-11236 11239 0
-5306 -11236 0
-5270 11237 0
-11237 11240 0
-5288 -11237 11238 0
-11238 11241 0
-5306 -11238 11239 0
-11239 11242 0
-5324 -11239 0
-5288 11240 0
-11240 11243 0
-5306 -11240 11241 0
-11241 11244 0
-5324 -11241 11242 0
-11242 11245 0
-5342 -11242 0
-5306 11243 0
-11243 11246 0
-5324 -11243 11244 0
-11244 11247 0
-5342 -11244 11245 0
-11245 11248 0
-5360 -11245 0
-5324 11246 0
-5342 -11246 11247 0
-5360 -11247 11248 0
-5378 -11248 0
1 0
