0 1 3
0 2 1
0 3 4
0 4 2
0 5 0
0 6 4
0 7 4
0 8 1
0 9 1
0 10 0
0 11 2
0 12 3
0 13 2
0 14 3
0 15 0
0 16 4
0 17 4
0 18 1
0 19 1
0 20 0
0 21 2
0 22 3
0 23 2
0 24 3
0 25 0
1 2 4
1 3 2
1 4 0
1 5 2
1 6 1
1 7 0
1 8 0
1 9 2
1 10 4
1 11 1
1 12 3
1 13 4
1 14 3
1 15 2
1 16 1
1 17 0
1 18 0
1 19 2
1 20 4
1 21 1
1 22 3
1 23 4
1 24 3
1 25 1
2 3 0
2 4 3
2 5 3
2 6 3
2 7 2
2 8 1
2 9 1
2 10 4
2 11 0
2 12 2
2 13 4
2 14 0
2 15 3
2 16 3
2 17 2
2 18 1
2 19 1
2 20 4
2 21 0
2 22 2
2 23 4
2 24 0
2 25 2
3 4 1
3 5 2
3 6 4
3 7 4
3 8 3
3 9 2
3 10 1
3 11 0
3 12 1
3 13 3
3 14 0
3 15 2
3 16 4
3 17 4
3 18 3
3 19 2
3 20 1
3 21 0
3 22 1
3 23 3
3 24 0
3 25 3
4 5 3
4 6 3
4 7 0
4 8 0
4 9 4
4 10 1
4 11 2
4 12 1
4 13 2
4 14 4
4 15 3
4 16 3
4 17 0
4 18 0
4 19 4
4 20 1
4 21 2
4 22 1
4 23 2
4 24 4
4 25 4
5 6 3
5 7 1
5 8 4
5 9 2
5 10 0
5 11 4
5 12 4
5 13 1
5 14 1
5 15 0
5 16 2
5 17 3
5 18 2
5 19 3
5 20 0
5 21 4
5 22 4
5 23 1
5 24 1
5 25 0
6 7 4
6 8 2
6 9 0
6 10 2
6 11 1
6 12 0
6 13 0
6 14 2
6 15 4
6 16 1
6 17 3
6 18 4
6 19 3
6 20 2
6 21 1
6 22 0
6 23 0
6 24 2
6 25 1
7 8 0
7 9 3
7 10 3
7 11 3
7 12 2
7 13 1
7 14 1
7 15 4
7 16 0
7 17 2
7 18 4
7 19 0
7 20 3
7 21 3
7 22 2
7 23 1
7 24 1
7 25 2
8 9 1
8 10 2
8 11 4
8 12 4
8 13 3
8 14 2
8 15 1
8 16 0
8 17 1
8 18 3
8 19 0
8 20 2
8 21 4
8 22 4
8 23 3
8 24 2
8 25 3
9 10 3
9 11 3
9 12 0
9 13 0
9 14 4
9 15 1
9 16 2
9 17 1
9 18 2
9 19 4
9 20 3
9 21 3
9 22 0
9 23 0
9 24 4
9 25 4
10 11 3
10 12 1
10 13 4
10 14 2
10 15 0
10 16 4
10 17 4
10 18 1
10 19 1
10 20 0
10 21 2
10 22 3
10 23 2
10 24 3
10 25 0
11 12 4
11 13 2
11 14 0
11 15 2
11 16 1
11 17 0
11 18 0
11 19 2
11 20 4
11 21 1
11 22 3
11 23 4
11 24 3
11 25 1
12 13 0
12 14 3
12 15 3
12 16 3
12 17 2
12 18 1
12 19 1
12 20 4
12 21 0
12 22 2
12 23 4
12 24 0
12 25 2
13 14 1
13 15 2
13 16 4
13 17 4
13 18 3
13 19 2
13 20 1
13 21 0
13 22 1
13 23 3
13 24 0
13 25 3
14 15 3
14 16 3
14 17 0
14 18 0
14 19 4
14 20 1
14 21 2
14 22 1
14 23 2
14 24 4
14 25 4
15 16 3
15 17 1
15 18 4
15 19 2
15 20 0
15 21 4
15 22 4
15 23 1
15 24 1
15 25 0
16 17 4
16 18 2
16 19 0
16 20 2
16 21 1
16 22 0
16 23 0
16 24 2
16 25 1
17 18 0
17 19 3
17 20 3
17 21 3
17 22 2
17 23 1
17 24 1
17 25 2
18 19 1
18 20 2
18 21 4
18 22 4
18 23 3
18 24 2
18 25 3
19 20 3
19 21 3
19 22 0
19 23 0
19 24 4
19 25 4
20 21 3
20 22 1
20 23 4
20 24 2
20 25 0
21 22 4
21 23 2
21 24 0
21 25 1
22 23 0
22 24 3
22 25 2
23 24 1
23 25 3
24 25 4
